
     Program PWSCF v.7.4 starts on  4May2026 at 10:26:57 
        Git branch: master
        Last git commit: a546703a761ccaf2e961f281526947e5269d4e69-dirty
        Last git commit date: Mon Oct 21 12:38:43 2024 +0000
        Last git commit subject: Merge branch 'master-qe-v7.4' into 'master'

     This program is part of the open-source Quantum ESPRESSO suite
     for quantum simulation of materials; please cite
         "P. Giannozzi et al., J. Phys.:Condens. Matter 21 395502 (2009);
         "P. Giannozzi et al., J. Phys.:Condens. Matter 29 465901 (2017);
         "P. Giannozzi et al., J. Chem. Phys. 152 154105 (2020);
          URL http://www.quantum-espresso.org", 
     in publications or presentations arising from this work. More details at
     http://www.quantum-espresso.org/quote

     Parallel version (MPI & OpenMP), running on      24 processor cores
     Number of MPI processes:                24
     Threads/MPI process:                     1

     MPI processes distributed on     1 nodes
     1528723 MiB available memory on the printing compute node when the environment starts

     Reading input from espresso.pwi
Warning: card &IONS ignored
Warning: card / ignored
Warning: card &CELL ignored
Warning: card / ignored
Warning: card &FCP ignored
Warning: card / ignored
Warning: card &RISM ignored
Warning: card / ignored

     Current dimensions of program PWSCF are:
     Max number of different atomic species (ntypx) = 10
     Max number of k-points (npk) =  40000
     Max angular momentum in pseudopotentials (lmaxx) =  4

     IMPORTANT: XC functional enforced from input :
     Exchange-correlation= PBE
                           (   1   4   3   4   0   0   0)
     Any further DFT definition will be discarded
     Please, verify this is what you really want


     Atomic positions and unit cell read from directory:
     ./out/si.save/

     Message from routine setup:
     using ibrav=0 with symmetry is DISCOURAGED, use correct ibrav instead

     K-points division:     npool     =       4
     R & G space division:  proc/nbgrp/npool/nimage =       6
     Subspace diagonalization in iterative solution of the eigenvalue problem:
     a serial algorithm will be used


     Parallelization info
     --------------------
     sticks:   dense  smooth     PW     G-vecs:    dense   smooth      PW
     Min         122     122     35                 2156     2156     350
     Max         123     123     36                 2157     2157     353
     Sum         733     733    211                12939    12939    2109

     Using Slab Decomposition



     bravais-lattice index     =            0
     lattice parameter (alat)  =       7.2558  a.u.
     unit-cell volume          =     270.1072 (a.u.)^3
     number of atoms/cell      =            2
     number of atomic types    =            1
     number of electrons       =         8.00
     number of Kohn-Sham states=           40
     kinetic-energy cutoff     =      50.0000  Ry
     charge density cutoff     =     200.0000  Ry
     Exchange-correlation= PBE
                           (   1   4   3   4   0   0   0)

     celldm(1)=   7.255773  celldm(2)=   0.000000  celldm(3)=   0.000000
     celldm(4)=   0.000000  celldm(5)=   0.000000  celldm(6)=   0.000000

     crystal axes: (cart. coord. in units of alat)
               a(1) = (   1.000000   0.000000   0.000000 )  
               a(2) = (   0.500000   0.866025   0.000000 )  
               a(3) = (   0.500000   0.288675   0.816497 )  

     reciprocal axes: (cart. coord. in units 2 pi/alat)
               b(1) = (  1.000000 -0.577350 -0.408248 )  
               b(2) = (  0.000000  1.154701 -0.408248 )  
               b(3) = (  0.000000  0.000000  1.224745 )  


     PseudoPot. # 1 for Si read from file:
     ../../pseudo/Si_ONCV_PBE-1.2.upf
     MD5 check sum: 7f029a58b69e3aa87b46a36c608bf45e
     Pseudo is Norm-conserving, Zval =  4.0
     Generated using ONCVPSP code by D. R. Hamann
     Using radial grid of  602 points,  4 beta functions with: 
                l(1) =   0
                l(2) =   0
                l(3) =   1
                l(4) =   1

     atomic species   valence    mass     pseudopotential
     Si                4.00    28.08500     Si( 1.00)

      6 Sym. Ops. (no inversion) found


                                    s                        frac. trans.

      isym =  1     identity                                     

 cryst.   s( 1) = (     1          0          0      )
                  (     0          1          0      )
                  (     0          0          1      )

 cart.    s( 1) = (  1.0000000 -0.0000000 -0.0000000 )
                  (  0.0000000  1.0000000  0.0000000 )
                  (  0.0000000  0.0000000  1.0000000 )


      isym =  2     120 deg rotation - cryst. axis [0,0,1]       

 cryst.   s( 2) = (    -1          1          0      )
                  (    -1          0          0      )
                  (    -1          0          1      )

 cart.    s( 2) = ( -0.5000000 -0.8660254  0.0000000 )
                  (  0.8660254 -0.5000000  0.0000000 )
                  (  0.0000000  0.0000000  1.0000000 )


      isym =  3     120 deg rotation - cryst. axis [0,0,-1]      

 cryst.   s( 3) = (     0         -1          0      )
                  (     1         -1          0      )
                  (     0         -1          1      )

 cart.    s( 3) = ( -0.5000000  0.8660254  0.0000000 )
                  ( -0.8660254 -0.5000000  0.0000000 )
                  (  0.0000000  0.0000000  1.0000000 )


      isym =  4     inv. 180 deg rotation - cart. axis [1,0,0]   

 cryst.   s( 4) = (    -1          0          0      )
                  (    -1          1          0      )
                  (    -1          0          1      )

 cart.    s( 4) = ( -1.0000000  0.0000000  0.0000000 )
                  (  0.0000000  1.0000000  0.0000000 )
                  (  0.0000000  0.0000000  1.0000000 )


      isym =  5     inv. 180 deg rotation - cryst. axis [0,1,0]  

 cryst.   s( 5) = (     0          1          0      )
                  (     1          0          0      )
                  (     0          0          1      )

 cart.    s( 5) = (  0.5000000  0.8660254 -0.0000000 )
                  (  0.8660254 -0.5000000  0.0000000 )
                  (  0.0000000  0.0000000  1.0000000 )


      isym =  6     inv. 180 deg rotation - cryst. axis [1,1,0]  

 cryst.   s( 6) = (     1         -1          0      )
                  (     0         -1          0      )
                  (     0         -1          1      )

 cart.    s( 6) = (  0.5000000 -0.8660254  0.0000000 )
                  ( -0.8660254 -0.5000000  0.0000000 )
                  (  0.0000000  0.0000000  1.0000000 )


   Cartesian axes

     site n.     atom                  positions (alat units)
         1        Si     tau(   1) = (   0.0000000   0.0000000   0.0000000  )
         2        Si     tau(   2) = (   0.5000000   0.2886751   0.2041241  )

   Crystallographic axes

     site n.     atom                  positions (cryst. coord.)
         1        Si     tau(   1) = (  0.0000000  0.0000000  0.0000000  )
         2        Si     tau(   2) = (  0.2500000  0.2500000  0.2500000  )

     number of k points=    19  Methfessel-Paxton smearing, width (Ry)=  0.0015
                       cart. coord. in units 2pi/alat
        k(    1) = (   0.0000000   0.0000000   0.0000000), wk =   0.0160000
        k(    2) = (   0.0000000   0.0000000   0.2449490), wk =   0.0320000
        k(    3) = (   0.0000000   0.0000000   0.4898979), wk =   0.0320000
        k(    4) = (   0.0000000   0.2309401  -0.0816497), wk =   0.0960000
        k(    5) = (   0.0000000   0.2309401   0.1632993), wk =   0.0960000
        k(    6) = (   0.0000000   0.2309401   0.4082483), wk =   0.0960000
        k(    7) = (   0.0000000   0.2309401  -0.5715476), wk =   0.0960000
        k(    8) = (   0.0000000   0.2309401  -0.3265986), wk =   0.0960000
        k(    9) = (   0.0000000   0.4618802  -0.1632993), wk =   0.0960000
        k(   10) = (   0.0000000   0.4618802   0.0816497), wk =   0.0960000
        k(   11) = (   0.0000000   0.4618802   0.3265986), wk =   0.0960000
        k(   12) = (   0.0000000   0.4618802  -0.6531973), wk =   0.0960000
        k(   13) = (   0.0000000   0.4618802  -0.4082483), wk =   0.0960000
        k(   14) = (   0.2000000   0.3464102  -0.2449490), wk =   0.1920000
        k(   15) = (   0.2000000   0.3464102  -0.0000000), wk =   0.0960000
        k(   16) = (   0.2000000   0.3464102  -0.7348469), wk =   0.1920000
        k(   17) = (   0.2000000  -0.5773503   0.0816497), wk =   0.1920000
        k(   18) = (   0.2000000  -0.5773503   0.5715476), wk =   0.1920000
        k(   19) = (   0.2000000  -0.5773503  -0.4082483), wk =   0.0960000

                       cryst. coord.
        k(    1) = (   0.0000000   0.0000000   0.0000000), wk =   0.0160000
        k(    2) = (   0.0000000   0.0000000   0.2000000), wk =   0.0320000
        k(    3) = (   0.0000000   0.0000000   0.4000000), wk =   0.0320000
        k(    4) = (   0.0000000   0.2000000  -0.0000000), wk =   0.0960000
        k(    5) = (   0.0000000   0.2000000   0.2000000), wk =   0.0960000
        k(    6) = (   0.0000000   0.2000000   0.4000000), wk =   0.0960000
        k(    7) = (   0.0000000   0.2000000  -0.4000000), wk =   0.0960000
        k(    8) = (   0.0000000   0.2000000  -0.2000000), wk =   0.0960000
        k(    9) = (   0.0000000   0.4000000  -0.0000000), wk =   0.0960000
        k(   10) = (   0.0000000   0.4000000   0.2000000), wk =   0.0960000
        k(   11) = (   0.0000000   0.4000000   0.4000000), wk =   0.0960000
        k(   12) = (   0.0000000   0.4000000  -0.4000000), wk =   0.0960000
        k(   13) = (   0.0000000   0.4000000  -0.2000000), wk =   0.0960000
        k(   14) = (   0.2000000   0.4000000  -0.0000000), wk =   0.1920000
        k(   15) = (   0.2000000   0.4000000   0.2000000), wk =   0.0960000
        k(   16) = (   0.2000000   0.4000000  -0.4000000), wk =   0.1920000
        k(   17) = (   0.2000000  -0.4000000  -0.0000000), wk =   0.1920000
        k(   18) = (   0.2000000  -0.4000000   0.4000000), wk =   0.1920000
        k(   19) = (   0.2000000  -0.4000000  -0.4000000), wk =   0.0960000

     Dense  grid:    12939 G-vectors     FFT dimensions: (  36,  36,  36)

     Dynamical RAM for                 wfc:       0.16 MB

     Dynamical RAM for     wfc (w. buffer):       0.16 MB

     Dynamical RAM for           str. fact:       0.03 MB

     Dynamical RAM for           local pot:       0.00 MB

     Dynamical RAM for          nlocal pot:       0.07 MB

     Dynamical RAM for                qrad:       0.32 MB

     Dynamical RAM for          rho,v,vnew:       0.28 MB

     Dynamical RAM for           G-vectors:       0.14 MB

     Dynamical RAM for          h,s,v(r/c):       0.29 MB

     Dynamical RAM for          <psi|beta>:       0.01 MB

     Dynamical RAM for                 psi:       0.33 MB

     Dynamical RAM for                hpsi:       0.33 MB

     Dynamical RAM for      wfcinit/wfcrot:       0.36 MB

     Estimated static dynamical RAM per process >       1.37 MB

     Estimated max dynamical RAM per process >       2.32 MB

     Estimated total dynamical RAM >      55.74 MB

     The potential is recalculated from file :
     ./out/si.save/charge-density

     Starting wfcs are random

     Band Structure Calculation
     Davidson diagonalization with overlap

     Computing kpt #:     1  of     5 on this pool
     total cpu time spent up to now is        0.3 secs

     Computing kpt #:     2  of     5 on this pool
     total cpu time spent up to now is        0.5 secs

     Computing kpt #:     3  of     5 on this pool
     total cpu time spent up to now is        0.6 secs

     Computing kpt #:     4  of     5 on this pool
     total cpu time spent up to now is        0.8 secs

     Computing kpt #:     5  of     5 on this pool
     total cpu time spent up to now is        0.9 secs

     ethr =  1.25E-12,  avg # of iterations = 41.5

     total cpu time spent up to now is        1.0 secs

     End of band structure calculation

          k = 0.0000 0.0000 0.0000 (  1639 PWs)   bands (ev):

    -5.7349   6.2257   6.2257   6.2257   8.7861   8.7861   8.7861   9.5644
    13.8984  13.8984  14.1666  17.4553  17.4553  17.4553  21.6162  29.1333
    29.1333  29.1333  30.1560  30.1560  31.9044  31.9044  31.9044  35.4648
    35.4648  35.4648  40.6529  40.6529  40.6529  44.4240  44.4240  44.5624
    46.5860  46.5860  48.4972  48.4972  48.4972  50.2214  50.2214  50.2214

     occupation numbers 
     1.0000   1.0000   1.0000   1.0000  -0.0000  -0.0000  -0.0000  -0.0000
    -0.0000  -0.0000  -0.0000  -0.0000  -0.0000  -0.0000  -0.0000  -0.0000
    -0.0000  -0.0000  -0.0000  -0.0000  -0.0000  -0.0000  -0.0000  -0.0000
    -0.0000  -0.0000  -0.0000  -0.0000  -0.0000  -0.0000  -0.0000  -0.0000
    -0.0000  -0.0000  -0.0000  -0.0000  -0.0000  -0.0000  -0.0000  -0.0000

          k = 0.0000 0.0000 0.2449 (  1606 PWs)   bands (ev):

    -5.2176   3.2182   5.6500   5.6500   8.4302   9.5823   9.5823  12.2575
    13.2369  13.2369  15.3603  17.1578  19.9268  19.9268  24.0767  25.1981
    25.1981  26.2367  29.9379  29.9379  32.6087  32.6087  34.0881  35.9285
    36.3073  38.8447  38.8447  39.7863  39.7863  40.7543  40.7543  43.9844
    43.9844  45.2305  46.3480  46.6811  47.6306  47.6306  49.9026  50.1013

     occupation numbers 
     1.0000   1.0000   1.0000   1.0000  -0.0000  -0.0000  -0.0000  -0.0000
    -0.0000  -0.0000  -0.0000  -0.0000  -0.0000  -0.0000  -0.0000  -0.0000
    -0.0000  -0.0000  -0.0000  -0.0000  -0.0000  -0.0000  -0.0000  -0.0000
    -0.0000  -0.0000  -0.0000  -0.0000  -0.0000  -0.0000  -0.0000  -0.0000
    -0.0000  -0.0000  -0.0000  -0.0000  -0.0000  -0.0000  -0.0000  -0.0000

          k = 0.0000 0.0000 0.4899 (  1616 PWs)   bands (ev):

    -3.8557  -0.0435   5.1059   5.1059   7.8249   9.6280   9.6280  14.0542
    15.1683  15.1683  16.2929  19.3664  19.3664  20.2351  23.1180  25.3134
    25.3134  29.0478  29.6530  29.6530  29.9451  32.8196  32.8196  34.0590
    34.0590  35.7330  36.9864  38.5726  38.5726  39.4330  39.4330  40.4802
    43.2425  43.5501  46.8679  46.8679  48.2653  48.2653  49.1714  49.9451

     occupation numbers 
     1.0000   1.0000   1.0000   1.0000  -0.0000  -0.0000  -0.0000  -0.0000
    -0.0000  -0.0000  -0.0000  -0.0000  -0.0000  -0.0000  -0.0000  -0.0000
    -0.0000  -0.0000  -0.0000  -0.0000  -0.0000  -0.0000  -0.0000  -0.0000
    -0.0000  -0.0000  -0.0000  -0.0000  -0.0000  -0.0000  -0.0000  -0.0000
    -0.0000  -0.0000  -0.0000  -0.0000  -0.0000  -0.0000  -0.0000  -0.0000

          k = 0.0000 0.2309-0.0816 (  1606 PWs)   bands (ev):

    -5.2176   3.2182   5.6500   5.6500   8.4302   9.5823   9.5823  12.2575
    13.2369  13.2369  15.3603  17.1578  19.9268  19.9268  24.0767  25.1981
    25.1981  26.2367  29.9379  29.9379  32.6087  32.6087  34.0881  35.9285
    36.3073  38.8447  38.8447  39.7863  39.7863  40.7543  40.7543  43.9844
    43.9844  45.2305  46.3480  46.6811  47.6306  47.6306  49.9026  50.1013

     occupation numbers 
     1.0000   1.0000   1.0000   1.0000  -0.0000  -0.0000  -0.0000  -0.0000
    -0.0000  -0.0000  -0.0000  -0.0000  -0.0000  -0.0000  -0.0000  -0.0000
    -0.0000  -0.0000  -0.0000  -0.0000  -0.0000  -0.0000  -0.0000  -0.0000
    -0.0000  -0.0000  -0.0000  -0.0000  -0.0000  -0.0000  -0.0000  -0.0000
    -0.0000  -0.0000  -0.0000  -0.0000  -0.0000  -0.0000  -0.0000  -0.0000

          k = 0.0000 0.2309 0.1633 (  1607 PWs)   bands (ev):

    -5.0396   3.6000   4.7437   4.7437   7.6787  10.0940  11.1070  11.1070
    13.2850  14.6713  16.6153  18.6266  18.6266  19.2436  24.7606  24.7606
    25.6069  25.8178  27.4062  30.1795  32.5690  33.3634  33.3634  37.0267
    37.0267  37.0949  38.4775  39.6895  39.7428  39.7428  41.8398  43.3009
    44.6463  44.6463  46.8036  47.0893  47.4335  47.5545  47.5545  50.1935

     occupation numbers 
     1.0000   1.0000   1.0000   1.0000  -0.0000  -0.0000  -0.0000  -0.0000
    -0.0000  -0.0000  -0.0000  -0.0000  -0.0000  -0.0000  -0.0000  -0.0000
    -0.0000  -0.0000  -0.0000  -0.0000  -0.0000  -0.0000  -0.0000  -0.0000
    -0.0000  -0.0000  -0.0000  -0.0000  -0.0000  -0.0000  -0.0000  -0.0000
    -0.0000  -0.0000  -0.0000  -0.0000  -0.0000  -0.0000  -0.0000  -0.0000

          k = 0.0000 0.2309 0.4082 (  1619 PWs)   bands (ev):

    -3.8987   0.9182   3.6064   4.2379   7.9864  10.2927  11.1422  11.6431
    16.2866  16.6349  16.9595  18.9665  19.6970  21.2958  22.6112  24.1292
    25.5695  26.0013  27.9495  29.8458  30.7785  31.8753  32.9529  33.9837
    35.3384  36.4144  36.9933  37.3471  38.8813  40.5521  41.6724  42.7186
    43.0460  43.4048  45.0418  46.1019  48.6685  49.1758  50.3129  50.4915

     occupation numbers 
     1.0000   1.0000   1.0000   1.0000  -0.0000  -0.0000  -0.0000  -0.0000
    -0.0000  -0.0000  -0.0000  -0.0000  -0.0000  -0.0000  -0.0000  -0.0000
    -0.0000  -0.0000  -0.0000  -0.0000  -0.0000  -0.0000  -0.0000  -0.0000
    -0.0000  -0.0000  -0.0000  -0.0000  -0.0000  -0.0000  -0.0000  -0.0000
    -0.0000  -0.0000  -0.0000  -0.0000  -0.0000  -0.0000  -0.0000  -0.0000

          k = 0.0000 0.2309-0.5715 (  1596 PWs)   bands (ev):

    -3.0151  -0.4741   2.7979   4.5203   8.2670  10.8104  11.0112  13.7688
    14.5895  14.6232  17.8039  20.2125  20.8228  21.3232  23.3678  25.6880
    26.0243  26.3785  27.7833  28.0353  31.0700  32.1672  32.5225  32.6051
    33.4866  34.8042  35.5856  37.4356  38.3931  39.9130  41.6731  41.7653
    42.6830  42.9881  44.8580  46.9063  48.3722  49.0823  49.7338  51.2245

     occupation numbers 
     1.0000   1.0000   1.0000   1.0000  -0.0000  -0.0000  -0.0000  -0.0000
    -0.0000  -0.0000  -0.0000  -0.0000  -0.0000  -0.0000  -0.0000  -0.0000
    -0.0000  -0.0000  -0.0000  -0.0000  -0.0000  -0.0000  -0.0000  -0.0000
    -0.0000  -0.0000  -0.0000  -0.0000  -0.0000  -0.0000  -0.0000  -0.0000
    -0.0000  -0.0000  -0.0000  -0.0000  -0.0000  -0.0000  -0.0000  -0.0000

          k = 0.0000 0.2309-0.3266 (  1610 PWs)   bands (ev):

    -4.3864   1.7506   3.2308   5.3861   9.1050  10.2129  10.5159  11.9503
    12.3042  16.9330  16.9703  18.0890  19.9495  21.1546  23.0865  24.4973
    26.0154  26.4985  28.0977  28.6275  31.9594  32.5068  33.7991  34.5932
    35.7933  36.1072  37.4525  39.1311  39.5981  40.2470  41.4224  41.8019
    44.1803  44.4647  45.4401  45.7763  45.8534  46.7640  49.0590  50.9884

     occupation numbers 
     1.0000   1.0000   1.0000   1.0000  -0.0000  -0.0000  -0.0000  -0.0000
    -0.0000  -0.0000  -0.0000  -0.0000  -0.0000  -0.0000  -0.0000  -0.0000
    -0.0000  -0.0000  -0.0000  -0.0000  -0.0000  -0.0000  -0.0000  -0.0000
    -0.0000  -0.0000  -0.0000  -0.0000  -0.0000  -0.0000  -0.0000  -0.0000
    -0.0000  -0.0000  -0.0000  -0.0000  -0.0000  -0.0000  -0.0000  -0.0000

          k = 0.0000 0.4619-0.1633 (  1616 PWs)   bands (ev):

    -3.8557  -0.0435   5.1059   5.1059   7.8249   9.6280   9.6280  14.0542
    15.1683  15.1683  16.2929  19.3664  19.3664  20.2351  23.1180  25.3134
    25.3134  29.0478  29.6530  29.6530  29.9451  32.8196  32.8196  34.0590
    34.0590  35.7330  36.9864  38.5726  38.5726  39.4330  39.4330  40.4802
    43.2425  43.5501  46.8679  46.8679  48.2653  48.2653  49.1714  49.9451

     occupation numbers 
     1.0000   1.0000   1.0000   1.0000  -0.0000  -0.0000  -0.0000  -0.0000
    -0.0000  -0.0000  -0.0000  -0.0000  -0.0000  -0.0000  -0.0000  -0.0000
    -0.0000  -0.0000  -0.0000  -0.0000  -0.0000  -0.0000  -0.0000  -0.0000
    -0.0000  -0.0000  -0.0000  -0.0000  -0.0000  -0.0000  -0.0000  -0.0000
    -0.0000  -0.0000  -0.0000  -0.0000  -0.0000  -0.0000  -0.0000  -0.0000

          k = 0.0000 0.4619 0.0816 (  1619 PWs)   bands (ev):

    -3.8987   0.9182   3.6064   4.2379   7.9864  10.2927  11.1422  11.6431
    16.2866  16.6349  16.9595  18.9665  19.6970  21.2958  22.6112  24.1292
    25.5695  26.0013  27.9495  29.8458  30.7785  31.8753  32.9529  33.9837
    35.3384  36.4144  36.9933  37.3471  38.8813  40.5521  41.6724  42.7186
    43.0459  43.4048  45.0418  46.1019  48.6685  49.1758  50.3129  50.4915

     occupation numbers 
     1.0000   1.0000   1.0000   1.0000  -0.0000  -0.0000  -0.0000  -0.0000
    -0.0000  -0.0000  -0.0000  -0.0000  -0.0000  -0.0000  -0.0000  -0.0000
    -0.0000  -0.0000  -0.0000  -0.0000  -0.0000  -0.0000  -0.0000  -0.0000
    -0.0000  -0.0000  -0.0000  -0.0000  -0.0000  -0.0000  -0.0000  -0.0000
    -0.0000  -0.0000  -0.0000  -0.0000  -0.0000  -0.0000  -0.0000  -0.0000

          k = 0.0000 0.4619 0.3266 (  1624 PWs)   bands (ev):

    -3.0231   0.0473   3.5412   3.5412   6.7914   7.5176  14.7111  14.7111
    16.9734  17.4307  18.7475  18.7475  20.0272  20.7534  22.6839  23.5329
    23.5329  24.9914  28.8489  29.3791  29.3791  29.9031  30.7974  32.7340
    35.2773  35.2773  36.2383  40.9936  40.9936  41.4583  41.5096  42.0097
    45.2744  45.8600  45.8600  46.0410  46.0410  46.9047  48.2456  48.8911

     occupation numbers 
     1.0000   1.0000   1.0000   1.0000  -0.0000  -0.0000  -0.0000  -0.0000
    -0.0000  -0.0000  -0.0000  -0.0000  -0.0000  -0.0000  -0.0000  -0.0000
    -0.0000  -0.0000  -0.0000  -0.0000  -0.0000  -0.0000  -0.0000  -0.0000
    -0.0000  -0.0000  -0.0000  -0.0000  -0.0000  -0.0000  -0.0000  -0.0000
    -0.0000  -0.0000  -0.0000  -0.0000  -0.0000  -0.0000  -0.0000  -0.0000

          k = 0.0000 0.4619-0.6532 (  1622 PWs)   bands (ev):

    -1.8187  -1.2131   2.1687   3.6599   7.2379   9.3600  14.3081  14.8525
    14.9469  15.2343  20.4970  20.5479  20.9116  21.9891  22.4612  23.0469
    25.9973  26.8536  27.1656  27.1953  28.5757  29.4560  30.4427  31.3548
    35.5297  36.3928  36.6358  37.3917  40.8127  40.9473  41.0151  41.9113
    42.5261  44.3578  45.0456  46.2454  48.0512  48.7141  50.0088  50.2084

     occupation numbers 
     1.0000   1.0000   1.0000   1.0000  -0.0000  -0.0000  -0.0000  -0.0000
    -0.0000  -0.0000  -0.0000  -0.0000  -0.0000  -0.0000  -0.0000  -0.0000
    -0.0000  -0.0000  -0.0000  -0.0000  -0.0000  -0.0000  -0.0000  -0.0000
    -0.0000  -0.0000  -0.0000  -0.0000  -0.0000  -0.0000  -0.0000  -0.0000
    -0.0000  -0.0000  -0.0000  -0.0000  -0.0000  -0.0000  -0.0000  -0.0000

          k = 0.0000 0.4619-0.4082 (  1596 PWs)   bands (ev):

    -3.0151  -0.4741   2.7979   4.5203   8.2670  10.8104  11.0112  13.7688
    14.5895  14.6232  17.8039  20.2125  20.8228  21.3232  23.3678  25.6880
    26.0243  26.3785  27.7833  28.0353  31.0700  32.1672  32.5225  32.6051
    33.4866  34.8042  35.5856  37.4356  38.3931  39.9130  41.6731  41.7653
    42.6830  42.9881  44.8580  46.9063  48.3722  49.0823  49.7338  51.2245

     occupation numbers 
     1.0000   1.0000   1.0000   1.0000  -0.0000  -0.0000  -0.0000  -0.0000
    -0.0000  -0.0000  -0.0000  -0.0000  -0.0000  -0.0000  -0.0000  -0.0000
    -0.0000  -0.0000  -0.0000  -0.0000  -0.0000  -0.0000  -0.0000  -0.0000
    -0.0000  -0.0000  -0.0000  -0.0000  -0.0000  -0.0000  -0.0000  -0.0000
    -0.0000  -0.0000  -0.0000  -0.0000  -0.0000  -0.0000  -0.0000  -0.0000

          k = 0.2000 0.3464-0.2449 (  1619 PWs)   bands (ev):

    -3.8987   0.9182   3.6064   4.2379   7.9864  10.2927  11.1422  11.6431
    16.2866  16.6349  16.9595  18.9665  19.6970  21.2958  22.6112  24.1292
    25.5695  26.0013  27.9495  29.8458  30.7785  31.8753  32.9529  33.9837
    35.3384  36.4144  36.9933  37.3471  38.8813  40.5521  41.6724  42.7186
    43.0459  43.4048  45.0418  46.1019  48.6685  49.1758  50.3129  50.4915

     occupation numbers 
     1.0000   1.0000   1.0000   1.0000  -0.0000  -0.0000  -0.0000  -0.0000
    -0.0000  -0.0000  -0.0000  -0.0000  -0.0000  -0.0000  -0.0000  -0.0000
    -0.0000  -0.0000  -0.0000  -0.0000  -0.0000  -0.0000  -0.0000  -0.0000
    -0.0000  -0.0000  -0.0000  -0.0000  -0.0000  -0.0000  -0.0000  -0.0000
    -0.0000  -0.0000  -0.0000  -0.0000  -0.0000  -0.0000  -0.0000  -0.0000

          k = 0.2000 0.3464-0.0000 (  1610 PWs)   bands (ev):

    -4.3864   1.7506   3.2308   5.3861   9.1050  10.2129  10.5159  11.9503
    12.3042  16.9330  16.9703  18.0890  19.9495  21.1546  23.0865  24.4973
    26.0154  26.4985  28.0977  28.6275  31.9594  32.5068  33.7991  34.5932
    35.7933  36.1072  37.4525  39.1311  39.5981  40.2470  41.4224  41.8019
    44.1803  44.4647  45.4401  45.7763  45.8534  46.7640  49.0590  50.9884

     occupation numbers 
     1.0000   1.0000   1.0000   1.0000  -0.0000  -0.0000  -0.0000  -0.0000
    -0.0000  -0.0000  -0.0000  -0.0000  -0.0000  -0.0000  -0.0000  -0.0000
    -0.0000  -0.0000  -0.0000  -0.0000  -0.0000  -0.0000  -0.0000  -0.0000
    -0.0000  -0.0000  -0.0000  -0.0000  -0.0000  -0.0000  -0.0000  -0.0000
    -0.0000  -0.0000  -0.0000  -0.0000  -0.0000  -0.0000  -0.0000  -0.0000

          k = 0.2000 0.3464-0.7348 (  1616 PWs)   bands (ev):

    -2.5842  -0.3359   2.2530   3.2407   9.6053   9.9745  10.6443  13.9874
    14.6544  16.3819  19.4615  20.6368  20.7210  21.7642  22.6965  24.8324
    25.9184  26.2422  26.8386  27.6370  29.2293  29.6396  32.0510  34.2404
    35.0040  35.3870  36.1475  36.4731  37.9786  38.4675  40.8049  43.4680
    43.7090  45.0077  46.5144  46.6781  48.9334  49.2341  49.7259  49.7349

     occupation numbers 
     1.0000   1.0000   1.0000   1.0000  -0.0000  -0.0000  -0.0000  -0.0000
    -0.0000  -0.0000  -0.0000  -0.0000  -0.0000  -0.0000  -0.0000  -0.0000
    -0.0000  -0.0000  -0.0000  -0.0000  -0.0000  -0.0000  -0.0000  -0.0000
    -0.0000  -0.0000  -0.0000  -0.0000  -0.0000  -0.0000  -0.0000  -0.0000
    -0.0000  -0.0000  -0.0000  -0.0000  -0.0000  -0.0000  -0.0000  -0.0000

          k = 0.2000-0.5774 0.0816 (  1596 PWs)   bands (ev):

    -3.0151  -0.4741   2.7979   4.5203   8.2670  10.8104  11.0112  13.7688
    14.5895  14.6232  17.8039  20.2125  20.8228  21.3232  23.3678  25.6880
    26.0243  26.3785  27.7833  28.0353  31.0700  32.1672  32.5225  32.6051
    33.4866  34.8042  35.5856  37.4356  38.3931  39.9130  41.6731  41.7653
    42.6830  42.9881  44.8580  46.9063  48.3722  49.0823  49.7338  51.2245

     occupation numbers 
     1.0000   1.0000   1.0000   1.0000  -0.0000  -0.0000  -0.0000  -0.0000
    -0.0000  -0.0000  -0.0000  -0.0000  -0.0000  -0.0000  -0.0000  -0.0000
    -0.0000  -0.0000  -0.0000  -0.0000  -0.0000  -0.0000  -0.0000  -0.0000
    -0.0000  -0.0000  -0.0000  -0.0000  -0.0000  -0.0000  -0.0000  -0.0000
    -0.0000  -0.0000  -0.0000  -0.0000  -0.0000  -0.0000  -0.0000  -0.0000

          k = 0.2000-0.5774 0.5715 (  1616 PWs)   bands (ev):

    -2.5842  -0.3359   2.2530   3.2407   9.6053   9.9745  10.6443  13.9874
    14.6544  16.3819  19.4615  20.6368  20.7210  21.7642  22.6965  24.8324
    25.9184  26.2422  26.8386  27.6370  29.2293  29.6396  32.0510  34.2404
    35.0040  35.3870  36.1475  36.4731  37.9786  38.4675  40.8049  43.4680
    43.7090  45.0077  46.5144  46.6781  48.9334  49.2341  49.7259  49.7349

     occupation numbers 
     1.0000   1.0000   1.0000   1.0000  -0.0000  -0.0000  -0.0000  -0.0000
    -0.0000  -0.0000  -0.0000  -0.0000  -0.0000  -0.0000  -0.0000  -0.0000
    -0.0000  -0.0000  -0.0000  -0.0000  -0.0000  -0.0000  -0.0000  -0.0000
    -0.0000  -0.0000  -0.0000  -0.0000  -0.0000  -0.0000  -0.0000  -0.0000
    -0.0000  -0.0000  -0.0000  -0.0000  -0.0000  -0.0000  -0.0000  -0.0000

          k = 0.2000-0.5774-0.4082 (  1622 PWs)   bands (ev):

    -1.8187  -1.2131   2.1687   3.6599   7.2379   9.3600  14.3081  14.8525
    14.9469  15.2343  20.4970  20.5479  20.9116  21.9891  22.4612  23.0469
    25.9973  26.8536  27.1656  27.1953  28.5757  29.4560  30.4427  31.3548
    35.5297  36.3928  36.6358  37.3917  40.8127  40.9473  41.0151  41.9113
    42.5261  44.3578  45.0456  46.2454  48.0512  48.7141  50.0088  50.2084

     occupation numbers 
     1.0000   1.0000   1.0000   1.0000  -0.0000  -0.0000  -0.0000  -0.0000
    -0.0000  -0.0000  -0.0000  -0.0000  -0.0000  -0.0000  -0.0000  -0.0000
    -0.0000  -0.0000  -0.0000  -0.0000  -0.0000  -0.0000  -0.0000  -0.0000
    -0.0000  -0.0000  -0.0000  -0.0000  -0.0000  -0.0000  -0.0000  -0.0000
    -0.0000  -0.0000  -0.0000  -0.0000  -0.0000  -0.0000  -0.0000  -0.0000

     the Fermi energy is     6.6102 ev
     (compare with:     6.6999 eV, computed in scf)

     Writing all to output data dir ./out/si.save/ :
     XML data file, pseudopotentials, collected wavefunctions

     init_run     :      0.01s CPU      0.02s WALL (       1 calls)
     electrons    :      0.80s CPU      0.85s WALL (       1 calls)

     Called by init_run:
     wfcinit      :      0.00s CPU      0.00s WALL (       1 calls)
     wfcinit:wfcr :      0.02s CPU      0.02s WALL (       5 calls)
     potinit      :      0.00s CPU      0.00s WALL (       1 calls)
     hinit0       :      0.01s CPU      0.01s WALL (       1 calls)

     Called by electrons:
     c_bands      :      0.80s CPU      0.85s WALL (       1 calls)
     v_of_rho     :      0.00s CPU      0.00s WALL (       1 calls)
     v_h          :      0.00s CPU      0.00s WALL (       1 calls)
     v_xc         :      0.00s CPU      0.00s WALL (       1 calls)

     Called by c_bands:
     init_us_2    :      0.00s CPU      0.00s WALL (       5 calls)
     cegterg      :      0.77s CPU      0.79s WALL (      14 calls)

     Called by sum_band:

     Called by *egterg:
     cdiaghg      :      0.29s CPU      0.30s WALL (     247 calls)
     cegterg:over :      0.04s CPU      0.04s WALL (     242 calls)
     cegterg:upda :      0.02s CPU      0.02s WALL (     242 calls)
     cegterg:last :      0.03s CPU      0.03s WALL (     130 calls)
     h_psi        :      0.39s CPU      0.41s WALL (     261 calls)
     g_psi        :      0.00s CPU      0.00s WALL (     242 calls)

     Called by h_psi:
     h_psi:calbec :      0.01s CPU      0.01s WALL (     261 calls)
     vloc_psi     :      0.38s CPU      0.40s WALL (     261 calls)
     add_vuspsi   :      0.00s CPU      0.00s WALL (     261 calls)

     General routines
     calbec       :      0.01s CPU      0.01s WALL (     261 calls)
     fft          :      0.00s CPU      0.00s WALL (      10 calls)
     fftw         :      0.35s CPU      0.36s WALL (   10884 calls)
     davcio       :      0.00s CPU      0.00s WALL (      10 calls)

     Parallel routines

     PWSCF        :      0.87s CPU      1.00s WALL


   This run was terminated on:  10:26:58   4May2026            

=------------------------------------------------------------------------------=
   JOB DONE.
=------------------------------------------------------------------------------=
