
     Program PWSCF v.7.4 starts on 17May2026 at 16:16:19 
        Git branch: master
        Last git commit: a546703a761ccaf2e961f281526947e5269d4e69-dirty
        Last git commit date: Mon Oct 21 12:38:43 2024 +0000
        Last git commit subject: Merge branch 'master-qe-v7.4' into 'master'

     This program is part of the open-source Quantum ESPRESSO suite
     for quantum simulation of materials; please cite
         "P. Giannozzi et al., J. Phys.:Condens. Matter 21 395502 (2009);
         "P. Giannozzi et al., J. Phys.:Condens. Matter 29 465901 (2017);
         "P. Giannozzi et al., J. Chem. Phys. 152 154105 (2020);
          URL http://www.quantum-espresso.org", 
     in publications or presentations arising from this work. More details at
     http://www.quantum-espresso.org/quote

     Parallel version (MPI & OpenMP), running on       8 processor cores
     Number of MPI processes:                 8
     Threads/MPI process:                     1

     MPI processes distributed on     1 nodes
     1499451 MiB available memory on the printing compute node when the environment starts

     Reading input from espresso.pwi
Warning: card &CELL ignored
Warning: card / ignored
Warning: card &FCP ignored
Warning: card / ignored
Warning: card &RISM ignored
Warning: card / ignored

     Current dimensions of program PWSCF are:
     Max number of different atomic species (ntypx) = 10
     Max number of k-points (npk) =  40000
     Max angular momentum in pseudopotentials (lmaxx) =  4

     IMPORTANT: XC functional enforced from input :
     Exchange-correlation= PBE
                           (   1   4   3   4   0   0   0)
     Any further DFT definition will be discarded
     Please, verify this is what you really want

     Message from routine setup:
     using ibrav=0 with symmetry is DISCOURAGED, use correct ibrav instead

     K-points division:     npool     =       4
     R & G space division:  proc/nbgrp/npool/nimage =       2
     Subspace diagonalization in iterative solution of the eigenvalue problem:
     a serial algorithm will be used


     Parallelization info
     --------------------
     sticks:   dense  smooth     PW     G-vecs:    dense   smooth      PW
     Min         592     592    174                15107    15107    2472
     Max         593     593    175                15108    15108    2473
     Sum        1185    1185    349                30215    30215    4945

     Using Slab Decomposition



     bravais-lattice index     =            0
     lattice parameter (alat)  =       7.2585  a.u.
     unit-cell volume          =     382.4162 (a.u.)^3
     number of atoms/cell      =            5
     number of atomic types    =            3
     number of electrons       =        41.00
     number of Kohn-Sham states=           25
     kinetic-energy cutoff     =      70.0000  Ry
     charge density cutoff     =     280.0000  Ry
     scf convergence threshold =      1.0E-10
     mixing beta               =       0.7000
     number of iterations used =            8  plain     mixing
     Exchange-correlation= PBE
                           (   1   4   3   4   0   0   0)

     celldm(1)=   7.258476  celldm(2)=   0.000000  celldm(3)=   0.000000
     celldm(4)=   0.000000  celldm(5)=   0.000000  celldm(6)=   0.000000

     crystal axes: (cart. coord. in units of alat)
               a(1) = (   1.000000   0.000000   0.000000 )  
               a(2) = (   0.000000   1.000000   0.000000 )  
               a(3) = (   0.000000   0.000000   1.000000 )  

     reciprocal axes: (cart. coord. in units 2 pi/alat)
               b(1) = (  1.000000  0.000000  0.000000 )  
               b(2) = (  0.000000  1.000000  0.000000 )  
               b(3) = (  0.000000  0.000000  1.000000 )  


     PseudoPot. # 1 for Sr read from file:
     ../../pseudo/Sr_ONCV_PBE-1.2.upf
     MD5 check sum: 3f9bc8d6f3e8472da0cbe0e6a3044a9f
     Pseudo is Norm-conserving, Zval = 10.0
     Generated using ONCVPSP code by D. R. Hamann
     Using radial grid of  602 points,  6 beta functions with: 
                l(1) =   0
                l(2) =   0
                l(3) =   1
                l(4) =   1
                l(5) =   2
                l(6) =   2

     PseudoPot. # 2 for V  read from file:
     ../../pseudo/V_ONCV_PBE-1.2.upf
     MD5 check sum: bee011fc3bed2e4eab367565d2f8133f
     Pseudo is Norm-conserving, Zval = 13.0
     Generated using ONCVPSP code by D. R. Hamann
     Using radial grid of  602 points,  6 beta functions with: 
                l(1) =   0
                l(2) =   0
                l(3) =   1
                l(4) =   1
                l(5) =   2
                l(6) =   2

     PseudoPot. # 3 for O  read from file:
     ../../pseudo/O_ONCV_PBE-1.2.upf
     MD5 check sum: e36c48deb68f4e355fffe4602be2c42c
     Pseudo is Norm-conserving, Zval =  6.0
     Generated using ONCVPSP code by D. R. Hamann
     Using radial grid of  602 points,  4 beta functions with: 
                l(1) =   0
                l(2) =   0
                l(3) =   1
                l(4) =   1

     atomic species   valence    mass     pseudopotential
     Sr               10.00    87.62000     Sr( 1.00)
     V                13.00    50.94150     V ( 1.00)
     O                 6.00    15.99900     O ( 1.00)

     48 Sym. Ops., with inversion, found


                                    s                        frac. trans.

      isym =  1     identity                                     

 cryst.   s( 1) = (     1          0          0      )
                  (     0          1          0      )
                  (     0          0          1      )

 cart.    s( 1) = (  1.0000000  0.0000000  0.0000000 )
                  (  0.0000000  1.0000000  0.0000000 )
                  (  0.0000000  0.0000000  1.0000000 )


      isym =  2     180 deg rotation - cart. axis [0,0,1]        

 cryst.   s( 2) = (    -1          0          0      )
                  (     0         -1          0      )
                  (     0          0          1      )

 cart.    s( 2) = ( -1.0000000  0.0000000  0.0000000 )
                  (  0.0000000 -1.0000000  0.0000000 )
                  (  0.0000000  0.0000000  1.0000000 )


      isym =  3     180 deg rotation - cart. axis [0,1,0]        

 cryst.   s( 3) = (    -1          0          0      )
                  (     0          1          0      )
                  (     0          0         -1      )

 cart.    s( 3) = ( -1.0000000  0.0000000  0.0000000 )
                  (  0.0000000  1.0000000  0.0000000 )
                  (  0.0000000  0.0000000 -1.0000000 )


      isym =  4     180 deg rotation - cart. axis [1,0,0]        

 cryst.   s( 4) = (     1          0          0      )
                  (     0         -1          0      )
                  (     0          0         -1      )

 cart.    s( 4) = (  1.0000000  0.0000000  0.0000000 )
                  (  0.0000000 -1.0000000  0.0000000 )
                  (  0.0000000  0.0000000 -1.0000000 )


      isym =  5     180 deg rotation - cart. axis [1,1,0]        

 cryst.   s( 5) = (     0          1          0      )
                  (     1          0          0      )
                  (     0          0         -1      )

 cart.    s( 5) = (  0.0000000  1.0000000  0.0000000 )
                  (  1.0000000  0.0000000  0.0000000 )
                  (  0.0000000  0.0000000 -1.0000000 )


      isym =  6     180 deg rotation - cart. axis [1,-1,0]       

 cryst.   s( 6) = (     0         -1          0      )
                  (    -1          0          0      )
                  (     0          0         -1      )

 cart.    s( 6) = (  0.0000000 -1.0000000  0.0000000 )
                  ( -1.0000000  0.0000000  0.0000000 )
                  (  0.0000000  0.0000000 -1.0000000 )


      isym =  7      90 deg rotation - cart. axis [0,0,-1]       

 cryst.   s( 7) = (     0         -1          0      )
                  (     1          0          0      )
                  (     0          0          1      )

 cart.    s( 7) = (  0.0000000  1.0000000  0.0000000 )
                  ( -1.0000000  0.0000000  0.0000000 )
                  (  0.0000000  0.0000000  1.0000000 )


      isym =  8      90 deg rotation - cart. axis [0,0,1]        

 cryst.   s( 8) = (     0          1          0      )
                  (    -1          0          0      )
                  (     0          0          1      )

 cart.    s( 8) = (  0.0000000 -1.0000000  0.0000000 )
                  (  1.0000000  0.0000000  0.0000000 )
                  (  0.0000000  0.0000000  1.0000000 )


      isym =  9     180 deg rotation - cart. axis [1,0,1]        

 cryst.   s( 9) = (     0          0          1      )
                  (     0         -1          0      )
                  (     1          0          0      )

 cart.    s( 9) = (  0.0000000  0.0000000  1.0000000 )
                  (  0.0000000 -1.0000000  0.0000000 )
                  (  1.0000000  0.0000000  0.0000000 )


      isym = 10     180 deg rotation - cart. axis [-1,0,1]       

 cryst.   s(10) = (     0          0         -1      )
                  (     0         -1          0      )
                  (    -1          0          0      )

 cart.    s(10) = (  0.0000000  0.0000000 -1.0000000 )
                  (  0.0000000 -1.0000000  0.0000000 )
                  ( -1.0000000  0.0000000  0.0000000 )


      isym = 11      90 deg rotation - cart. axis [0,1,0]        

 cryst.   s(11) = (     0          0         -1      )
                  (     0          1          0      )
                  (     1          0          0      )

 cart.    s(11) = (  0.0000000  0.0000000  1.0000000 )
                  (  0.0000000  1.0000000  0.0000000 )
                  ( -1.0000000  0.0000000  0.0000000 )


      isym = 12      90 deg rotation - cart. axis [0,-1,0]       

 cryst.   s(12) = (     0          0          1      )
                  (     0          1          0      )
                  (    -1          0          0      )

 cart.    s(12) = (  0.0000000  0.0000000 -1.0000000 )
                  (  0.0000000  1.0000000  0.0000000 )
                  (  1.0000000  0.0000000  0.0000000 )


      isym = 13     180 deg rotation - cart. axis [0,1,1]        

 cryst.   s(13) = (    -1          0          0      )
                  (     0          0          1      )
                  (     0          1          0      )

 cart.    s(13) = ( -1.0000000  0.0000000  0.0000000 )
                  (  0.0000000  0.0000000  1.0000000 )
                  (  0.0000000  1.0000000  0.0000000 )


      isym = 14     180 deg rotation - cart. axis [0,1,-1]       

 cryst.   s(14) = (    -1          0          0      )
                  (     0          0         -1      )
                  (     0         -1          0      )

 cart.    s(14) = ( -1.0000000  0.0000000  0.0000000 )
                  (  0.0000000  0.0000000 -1.0000000 )
                  (  0.0000000 -1.0000000  0.0000000 )


      isym = 15      90 deg rotation - cart. axis [-1,0,0]       

 cryst.   s(15) = (     1          0          0      )
                  (     0          0         -1      )
                  (     0          1          0      )

 cart.    s(15) = (  1.0000000  0.0000000  0.0000000 )
                  (  0.0000000  0.0000000  1.0000000 )
                  (  0.0000000 -1.0000000  0.0000000 )


      isym = 16      90 deg rotation - cart. axis [1,0,0]        

 cryst.   s(16) = (     1          0          0      )
                  (     0          0          1      )
                  (     0         -1          0      )

 cart.    s(16) = (  1.0000000  0.0000000  0.0000000 )
                  (  0.0000000  0.0000000 -1.0000000 )
                  (  0.0000000  1.0000000  0.0000000 )


      isym = 17     120 deg rotation - cart. axis [-1,-1,-1]     

 cryst.   s(17) = (     0          0          1      )
                  (     1          0          0      )
                  (     0          1          0      )

 cart.    s(17) = (  0.0000000  1.0000000  0.0000000 )
                  (  0.0000000  0.0000000  1.0000000 )
                  (  1.0000000  0.0000000  0.0000000 )


      isym = 18     120 deg rotation - cart. axis [-1,1,1]       

 cryst.   s(18) = (     0          0         -1      )
                  (    -1          0          0      )
                  (     0          1          0      )

 cart.    s(18) = (  0.0000000 -1.0000000  0.0000000 )
                  (  0.0000000  0.0000000  1.0000000 )
                  ( -1.0000000  0.0000000  0.0000000 )


      isym = 19     120 deg rotation - cart. axis [1,1,-1]       

 cryst.   s(19) = (     0          0         -1      )
                  (     1          0          0      )
                  (     0         -1          0      )

 cart.    s(19) = (  0.0000000  1.0000000  0.0000000 )
                  (  0.0000000  0.0000000 -1.0000000 )
                  ( -1.0000000  0.0000000  0.0000000 )


      isym = 20     120 deg rotation - cart. axis [1,-1,1]       

 cryst.   s(20) = (     0          0          1      )
                  (    -1          0          0      )
                  (     0         -1          0      )

 cart.    s(20) = (  0.0000000 -1.0000000  0.0000000 )
                  (  0.0000000  0.0000000 -1.0000000 )
                  (  1.0000000  0.0000000  0.0000000 )


      isym = 21     120 deg rotation - cart. axis [1,1,1]        

 cryst.   s(21) = (     0          1          0      )
                  (     0          0          1      )
                  (     1          0          0      )

 cart.    s(21) = (  0.0000000  0.0000000  1.0000000 )
                  (  1.0000000  0.0000000  0.0000000 )
                  (  0.0000000  1.0000000  0.0000000 )


      isym = 22     120 deg rotation - cart. axis [-1,1,-1]      

 cryst.   s(22) = (     0         -1          0      )
                  (     0          0         -1      )
                  (     1          0          0      )

 cart.    s(22) = (  0.0000000  0.0000000  1.0000000 )
                  ( -1.0000000  0.0000000  0.0000000 )
                  (  0.0000000 -1.0000000  0.0000000 )


      isym = 23     120 deg rotation - cart. axis [1,-1,-1]      

 cryst.   s(23) = (     0         -1          0      )
                  (     0          0          1      )
                  (    -1          0          0      )

 cart.    s(23) = (  0.0000000  0.0000000 -1.0000000 )
                  ( -1.0000000  0.0000000  0.0000000 )
                  (  0.0000000  1.0000000  0.0000000 )


      isym = 24     120 deg rotation - cart. axis [-1,-1,1]      

 cryst.   s(24) = (     0          1          0      )
                  (     0          0         -1      )
                  (    -1          0          0      )

 cart.    s(24) = (  0.0000000  0.0000000 -1.0000000 )
                  (  1.0000000  0.0000000  0.0000000 )
                  (  0.0000000 -1.0000000  0.0000000 )


      isym = 25     inversion                                    

 cryst.   s(25) = (    -1          0          0      )
                  (     0         -1          0      )
                  (     0          0         -1      )

 cart.    s(25) = ( -1.0000000  0.0000000  0.0000000 )
                  (  0.0000000 -1.0000000  0.0000000 )
                  (  0.0000000  0.0000000 -1.0000000 )


      isym = 26     inv. 180 deg rotation - cart. axis [0,0,1]   

 cryst.   s(26) = (     1          0          0      )
                  (     0          1          0      )
                  (     0          0         -1      )

 cart.    s(26) = (  1.0000000  0.0000000  0.0000000 )
                  (  0.0000000  1.0000000  0.0000000 )
                  (  0.0000000  0.0000000 -1.0000000 )


      isym = 27     inv. 180 deg rotation - cart. axis [0,1,0]   

 cryst.   s(27) = (     1          0          0      )
                  (     0         -1          0      )
                  (     0          0          1      )

 cart.    s(27) = (  1.0000000  0.0000000  0.0000000 )
                  (  0.0000000 -1.0000000  0.0000000 )
                  (  0.0000000  0.0000000  1.0000000 )


      isym = 28     inv. 180 deg rotation - cart. axis [1,0,0]   

 cryst.   s(28) = (    -1          0          0      )
                  (     0          1          0      )
                  (     0          0          1      )

 cart.    s(28) = ( -1.0000000  0.0000000  0.0000000 )
                  (  0.0000000  1.0000000  0.0000000 )
                  (  0.0000000  0.0000000  1.0000000 )


      isym = 29     inv. 180 deg rotation - cart. axis [1,1,0]   

 cryst.   s(29) = (     0         -1          0      )
                  (    -1          0          0      )
                  (     0          0          1      )

 cart.    s(29) = (  0.0000000 -1.0000000  0.0000000 )
                  ( -1.0000000  0.0000000  0.0000000 )
                  (  0.0000000  0.0000000  1.0000000 )


      isym = 30     inv. 180 deg rotation - cart. axis [1,-1,0]  

 cryst.   s(30) = (     0          1          0      )
                  (     1          0          0      )
                  (     0          0          1      )

 cart.    s(30) = (  0.0000000  1.0000000  0.0000000 )
                  (  1.0000000  0.0000000  0.0000000 )
                  (  0.0000000  0.0000000  1.0000000 )


      isym = 31     inv.  90 deg rotation - cart. axis [0,0,-1]  

 cryst.   s(31) = (     0          1          0      )
                  (    -1          0          0      )
                  (     0          0         -1      )

 cart.    s(31) = (  0.0000000 -1.0000000  0.0000000 )
                  (  1.0000000  0.0000000  0.0000000 )
                  (  0.0000000  0.0000000 -1.0000000 )


      isym = 32     inv.  90 deg rotation - cart. axis [0,0,1]   

 cryst.   s(32) = (     0         -1          0      )
                  (     1          0          0      )
                  (     0          0         -1      )

 cart.    s(32) = (  0.0000000  1.0000000  0.0000000 )
                  ( -1.0000000  0.0000000  0.0000000 )
                  (  0.0000000  0.0000000 -1.0000000 )


      isym = 33     inv. 180 deg rotation - cart. axis [1,0,1]   

 cryst.   s(33) = (     0          0         -1      )
                  (     0          1          0      )
                  (    -1          0          0      )

 cart.    s(33) = (  0.0000000  0.0000000 -1.0000000 )
                  (  0.0000000  1.0000000  0.0000000 )
                  ( -1.0000000  0.0000000  0.0000000 )


      isym = 34     inv. 180 deg rotation - cart. axis [-1,0,1]  

 cryst.   s(34) = (     0          0          1      )
                  (     0          1          0      )
                  (     1          0          0      )

 cart.    s(34) = (  0.0000000  0.0000000  1.0000000 )
                  (  0.0000000  1.0000000  0.0000000 )
                  (  1.0000000  0.0000000  0.0000000 )


      isym = 35     inv.  90 deg rotation - cart. axis [0,1,0]   

 cryst.   s(35) = (     0          0          1      )
                  (     0         -1          0      )
                  (    -1          0          0      )

 cart.    s(35) = (  0.0000000  0.0000000 -1.0000000 )
                  (  0.0000000 -1.0000000  0.0000000 )
                  (  1.0000000  0.0000000  0.0000000 )


      isym = 36     inv.  90 deg rotation - cart. axis [0,-1,0]  

 cryst.   s(36) = (     0          0         -1      )
                  (     0         -1          0      )
                  (     1          0          0      )

 cart.    s(36) = (  0.0000000  0.0000000  1.0000000 )
                  (  0.0000000 -1.0000000  0.0000000 )
                  ( -1.0000000  0.0000000  0.0000000 )


      isym = 37     inv. 180 deg rotation - cart. axis [0,1,1]   

 cryst.   s(37) = (     1          0          0      )
                  (     0          0         -1      )
                  (     0         -1          0      )

 cart.    s(37) = (  1.0000000  0.0000000  0.0000000 )
                  (  0.0000000  0.0000000 -1.0000000 )
                  (  0.0000000 -1.0000000  0.0000000 )


      isym = 38     inv. 180 deg rotation - cart. axis [0,1,-1]  

 cryst.   s(38) = (     1          0          0      )
                  (     0          0          1      )
                  (     0          1          0      )

 cart.    s(38) = (  1.0000000  0.0000000  0.0000000 )
                  (  0.0000000  0.0000000  1.0000000 )
                  (  0.0000000  1.0000000  0.0000000 )


      isym = 39     inv.  90 deg rotation - cart. axis [-1,0,0]  

 cryst.   s(39) = (    -1          0          0      )
                  (     0          0          1      )
                  (     0         -1          0      )

 cart.    s(39) = ( -1.0000000  0.0000000  0.0000000 )
                  (  0.0000000  0.0000000 -1.0000000 )
                  (  0.0000000  1.0000000  0.0000000 )


      isym = 40     inv.  90 deg rotation - cart. axis [1,0,0]   

 cryst.   s(40) = (    -1          0          0      )
                  (     0          0         -1      )
                  (     0          1          0      )

 cart.    s(40) = ( -1.0000000  0.0000000  0.0000000 )
                  (  0.0000000  0.0000000  1.0000000 )
                  (  0.0000000 -1.0000000  0.0000000 )


      isym = 41     inv. 120 deg rotation - cart. axis [-1,-1,-1]

 cryst.   s(41) = (     0          0         -1      )
                  (    -1          0          0      )
                  (     0         -1          0      )

 cart.    s(41) = (  0.0000000 -1.0000000  0.0000000 )
                  (  0.0000000  0.0000000 -1.0000000 )
                  ( -1.0000000  0.0000000  0.0000000 )


      isym = 42     inv. 120 deg rotation - cart. axis [-1,1,1]  

 cryst.   s(42) = (     0          0          1      )
                  (     1          0          0      )
                  (     0         -1          0      )

 cart.    s(42) = (  0.0000000  1.0000000  0.0000000 )
                  (  0.0000000  0.0000000 -1.0000000 )
                  (  1.0000000  0.0000000  0.0000000 )


      isym = 43     inv. 120 deg rotation - cart. axis [1,1,-1]  

 cryst.   s(43) = (     0          0          1      )
                  (    -1          0          0      )
                  (     0          1          0      )

 cart.    s(43) = (  0.0000000 -1.0000000  0.0000000 )
                  (  0.0000000  0.0000000  1.0000000 )
                  (  1.0000000  0.0000000  0.0000000 )


      isym = 44     inv. 120 deg rotation - cart. axis [1,-1,1]  

 cryst.   s(44) = (     0          0         -1      )
                  (     1          0          0      )
                  (     0          1          0      )

 cart.    s(44) = (  0.0000000  1.0000000  0.0000000 )
                  (  0.0000000  0.0000000  1.0000000 )
                  ( -1.0000000  0.0000000  0.0000000 )


      isym = 45     inv. 120 deg rotation - cart. axis [1,1,1]   

 cryst.   s(45) = (     0         -1          0      )
                  (     0          0         -1      )
                  (    -1          0          0      )

 cart.    s(45) = (  0.0000000  0.0000000 -1.0000000 )
                  ( -1.0000000  0.0000000  0.0000000 )
                  (  0.0000000 -1.0000000  0.0000000 )


      isym = 46     inv. 120 deg rotation - cart. axis [-1,1,-1] 

 cryst.   s(46) = (     0          1          0      )
                  (     0          0          1      )
                  (    -1          0          0      )

 cart.    s(46) = (  0.0000000  0.0000000 -1.0000000 )
                  (  1.0000000  0.0000000  0.0000000 )
                  (  0.0000000  1.0000000  0.0000000 )


      isym = 47     inv. 120 deg rotation - cart. axis [1,-1,-1] 

 cryst.   s(47) = (     0          1          0      )
                  (     0          0         -1      )
                  (     1          0          0      )

 cart.    s(47) = (  0.0000000  0.0000000  1.0000000 )
                  (  1.0000000  0.0000000  0.0000000 )
                  (  0.0000000 -1.0000000  0.0000000 )


      isym = 48     inv. 120 deg rotation - cart. axis [-1,-1,1] 

 cryst.   s(48) = (     0         -1          0      )
                  (     0          0          1      )
                  (     1          0          0      )

 cart.    s(48) = (  0.0000000  0.0000000  1.0000000 )
                  ( -1.0000000  0.0000000  0.0000000 )
                  (  0.0000000  1.0000000  0.0000000 )


   Cartesian axes

     site n.     atom                  positions (alat units)
         1        Sr     tau(   1) = (   0.5000000   0.5000000   0.5000000  )
         2        V      tau(   2) = (   0.0000000   0.0000000   0.0000000  )
         3        O      tau(   3) = (   0.5000000   0.0000000   0.0000000  )
         4        O      tau(   4) = (   0.0000000   0.5000000   0.0000000  )
         5        O      tau(   5) = (   0.0000000   0.0000000   0.5000000  )

   Crystallographic axes

     site n.     atom                  positions (cryst. coord.)
         1        Sr     tau(   1) = (  0.5000000  0.5000000  0.5000000  )
         2        V      tau(   2) = (  0.0000000  0.0000000  0.0000000  )
         3        O      tau(   3) = (  0.5000000  0.0000000  0.0000000  )
         4        O      tau(   4) = (  0.0000000  0.5000000  0.0000000  )
         5        O      tau(   5) = (  0.0000000  0.0000000  0.5000000  )

     number of k points=   120  Methfessel-Paxton smearing, width (Ry)=  0.0015
                       cart. coord. in units 2pi/alat
        k(    1) = (   0.0000000   0.0000000   0.0000000), wk =   0.0007289
        k(    2) = (   0.0000000   0.0000000   0.0714286), wk =   0.0043732
        k(    3) = (   0.0000000   0.0000000   0.1428571), wk =   0.0043732
        k(    4) = (   0.0000000   0.0000000   0.2142857), wk =   0.0043732
        k(    5) = (   0.0000000   0.0000000   0.2857143), wk =   0.0043732
        k(    6) = (   0.0000000   0.0000000   0.3571429), wk =   0.0043732
        k(    7) = (   0.0000000   0.0000000   0.4285714), wk =   0.0043732
        k(    8) = (   0.0000000   0.0000000  -0.5000000), wk =   0.0021866
        k(    9) = (   0.0000000   0.0714286   0.0714286), wk =   0.0087464
        k(   10) = (   0.0000000   0.0714286   0.1428571), wk =   0.0174927
        k(   11) = (   0.0000000   0.0714286   0.2142857), wk =   0.0174927
        k(   12) = (   0.0000000   0.0714286   0.2857143), wk =   0.0174927
        k(   13) = (   0.0000000   0.0714286   0.3571429), wk =   0.0174927
        k(   14) = (   0.0000000   0.0714286   0.4285714), wk =   0.0174927
        k(   15) = (   0.0000000   0.0714286  -0.5000000), wk =   0.0087464
        k(   16) = (   0.0000000   0.1428571   0.1428571), wk =   0.0087464
        k(   17) = (   0.0000000   0.1428571   0.2142857), wk =   0.0174927
        k(   18) = (   0.0000000   0.1428571   0.2857143), wk =   0.0174927
        k(   19) = (   0.0000000   0.1428571   0.3571429), wk =   0.0174927
        k(   20) = (   0.0000000   0.1428571   0.4285714), wk =   0.0174927
        k(   21) = (   0.0000000   0.1428571  -0.5000000), wk =   0.0087464
        k(   22) = (   0.0000000   0.2142857   0.2142857), wk =   0.0087464
        k(   23) = (   0.0000000   0.2142857   0.2857143), wk =   0.0174927
        k(   24) = (   0.0000000   0.2142857   0.3571429), wk =   0.0174927
        k(   25) = (   0.0000000   0.2142857   0.4285714), wk =   0.0174927
        k(   26) = (   0.0000000   0.2142857  -0.5000000), wk =   0.0087464
        k(   27) = (   0.0000000   0.2857143   0.2857143), wk =   0.0087464
        k(   28) = (   0.0000000   0.2857143   0.3571429), wk =   0.0174927
        k(   29) = (   0.0000000   0.2857143   0.4285714), wk =   0.0174927
        k(   30) = (   0.0000000   0.2857143  -0.5000000), wk =   0.0087464
        k(   31) = (   0.0000000   0.3571429   0.3571429), wk =   0.0087464
        k(   32) = (   0.0000000   0.3571429   0.4285714), wk =   0.0174927
        k(   33) = (   0.0000000   0.3571429  -0.5000000), wk =   0.0087464
        k(   34) = (   0.0000000   0.4285714   0.4285714), wk =   0.0087464
        k(   35) = (   0.0000000   0.4285714  -0.5000000), wk =   0.0087464
        k(   36) = (   0.0000000  -0.5000000  -0.5000000), wk =   0.0021866
        k(   37) = (   0.0714286   0.0714286   0.0714286), wk =   0.0058309
        k(   38) = (   0.0714286   0.0714286   0.1428571), wk =   0.0174927
        k(   39) = (   0.0714286   0.0714286   0.2142857), wk =   0.0174927
        k(   40) = (   0.0714286   0.0714286   0.2857143), wk =   0.0174927
        k(   41) = (   0.0714286   0.0714286   0.3571429), wk =   0.0174927
        k(   42) = (   0.0714286   0.0714286   0.4285714), wk =   0.0174927
        k(   43) = (   0.0714286   0.0714286  -0.5000000), wk =   0.0087464
        k(   44) = (   0.0714286   0.1428571   0.1428571), wk =   0.0174927
        k(   45) = (   0.0714286   0.1428571   0.2142857), wk =   0.0349854
        k(   46) = (   0.0714286   0.1428571   0.2857143), wk =   0.0349854
        k(   47) = (   0.0714286   0.1428571   0.3571429), wk =   0.0349854
        k(   48) = (   0.0714286   0.1428571   0.4285714), wk =   0.0349854
        k(   49) = (   0.0714286   0.1428571  -0.5000000), wk =   0.0174927
        k(   50) = (   0.0714286   0.2142857   0.2142857), wk =   0.0174927
        k(   51) = (   0.0714286   0.2142857   0.2857143), wk =   0.0349854
        k(   52) = (   0.0714286   0.2142857   0.3571429), wk =   0.0349854
        k(   53) = (   0.0714286   0.2142857   0.4285714), wk =   0.0349854
        k(   54) = (   0.0714286   0.2142857  -0.5000000), wk =   0.0174927
        k(   55) = (   0.0714286   0.2857143   0.2857143), wk =   0.0174927
        k(   56) = (   0.0714286   0.2857143   0.3571429), wk =   0.0349854
        k(   57) = (   0.0714286   0.2857143   0.4285714), wk =   0.0349854
        k(   58) = (   0.0714286   0.2857143  -0.5000000), wk =   0.0174927
        k(   59) = (   0.0714286   0.3571429   0.3571429), wk =   0.0174927
        k(   60) = (   0.0714286   0.3571429   0.4285714), wk =   0.0349854
        k(   61) = (   0.0714286   0.3571429  -0.5000000), wk =   0.0174927
        k(   62) = (   0.0714286   0.4285714   0.4285714), wk =   0.0174927
        k(   63) = (   0.0714286   0.4285714  -0.5000000), wk =   0.0174927
        k(   64) = (   0.0714286  -0.5000000  -0.5000000), wk =   0.0043732
        k(   65) = (   0.1428571   0.1428571   0.1428571), wk =   0.0058309
        k(   66) = (   0.1428571   0.1428571   0.2142857), wk =   0.0174927
        k(   67) = (   0.1428571   0.1428571   0.2857143), wk =   0.0174927
        k(   68) = (   0.1428571   0.1428571   0.3571429), wk =   0.0174927
        k(   69) = (   0.1428571   0.1428571   0.4285714), wk =   0.0174927
        k(   70) = (   0.1428571   0.1428571  -0.5000000), wk =   0.0087464
        k(   71) = (   0.1428571   0.2142857   0.2142857), wk =   0.0174927
        k(   72) = (   0.1428571   0.2142857   0.2857143), wk =   0.0349854
        k(   73) = (   0.1428571   0.2142857   0.3571429), wk =   0.0349854
        k(   74) = (   0.1428571   0.2142857   0.4285714), wk =   0.0349854
        k(   75) = (   0.1428571   0.2142857  -0.5000000), wk =   0.0174927
        k(   76) = (   0.1428571   0.2857143   0.2857143), wk =   0.0174927
        k(   77) = (   0.1428571   0.2857143   0.3571429), wk =   0.0349854
        k(   78) = (   0.1428571   0.2857143   0.4285714), wk =   0.0349854
        k(   79) = (   0.1428571   0.2857143  -0.5000000), wk =   0.0174927
        k(   80) = (   0.1428571   0.3571429   0.3571429), wk =   0.0174927
        k(   81) = (   0.1428571   0.3571429   0.4285714), wk =   0.0349854
        k(   82) = (   0.1428571   0.3571429  -0.5000000), wk =   0.0174927
        k(   83) = (   0.1428571   0.4285714   0.4285714), wk =   0.0174927
        k(   84) = (   0.1428571   0.4285714  -0.5000000), wk =   0.0174927
        k(   85) = (   0.1428571  -0.5000000  -0.5000000), wk =   0.0043732
        k(   86) = (   0.2142857   0.2142857   0.2142857), wk =   0.0058309
        k(   87) = (   0.2142857   0.2142857   0.2857143), wk =   0.0174927
        k(   88) = (   0.2142857   0.2142857   0.3571429), wk =   0.0174927
        k(   89) = (   0.2142857   0.2142857   0.4285714), wk =   0.0174927
        k(   90) = (   0.2142857   0.2142857  -0.5000000), wk =   0.0087464
        k(   91) = (   0.2142857   0.2857143   0.2857143), wk =   0.0174927
        k(   92) = (   0.2142857   0.2857143   0.3571429), wk =   0.0349854
        k(   93) = (   0.2142857   0.2857143   0.4285714), wk =   0.0349854
        k(   94) = (   0.2142857   0.2857143  -0.5000000), wk =   0.0174927
        k(   95) = (   0.2142857   0.3571429   0.3571429), wk =   0.0174927
        k(   96) = (   0.2142857   0.3571429   0.4285714), wk =   0.0349854
        k(   97) = (   0.2142857   0.3571429  -0.5000000), wk =   0.0174927
        k(   98) = (   0.2142857   0.4285714   0.4285714), wk =   0.0174927
        k(   99) = (   0.2142857   0.4285714  -0.5000000), wk =   0.0174927
        k(  100) = (   0.2142857  -0.5000000  -0.5000000), wk =   0.0043732
        k(  101) = (   0.2857143   0.2857143   0.2857143), wk =   0.0058309
        k(  102) = (   0.2857143   0.2857143   0.3571429), wk =   0.0174927
        k(  103) = (   0.2857143   0.2857143   0.4285714), wk =   0.0174927
        k(  104) = (   0.2857143   0.2857143  -0.5000000), wk =   0.0087464
        k(  105) = (   0.2857143   0.3571429   0.3571429), wk =   0.0174927
        k(  106) = (   0.2857143   0.3571429   0.4285714), wk =   0.0349854
        k(  107) = (   0.2857143   0.3571429  -0.5000000), wk =   0.0174927
        k(  108) = (   0.2857143   0.4285714   0.4285714), wk =   0.0174927
        k(  109) = (   0.2857143   0.4285714  -0.5000000), wk =   0.0174927
        k(  110) = (   0.2857143  -0.5000000  -0.5000000), wk =   0.0043732
        k(  111) = (   0.3571429   0.3571429   0.3571429), wk =   0.0058309
        k(  112) = (   0.3571429   0.3571429   0.4285714), wk =   0.0174927
        k(  113) = (   0.3571429   0.3571429  -0.5000000), wk =   0.0087464
        k(  114) = (   0.3571429   0.4285714   0.4285714), wk =   0.0174927
        k(  115) = (   0.3571429   0.4285714  -0.5000000), wk =   0.0174927
        k(  116) = (   0.3571429  -0.5000000  -0.5000000), wk =   0.0043732
        k(  117) = (   0.4285714   0.4285714   0.4285714), wk =   0.0058309
        k(  118) = (   0.4285714   0.4285714  -0.5000000), wk =   0.0087464
        k(  119) = (   0.4285714  -0.5000000  -0.5000000), wk =   0.0043732
        k(  120) = (  -0.5000000  -0.5000000  -0.5000000), wk =   0.0007289

                       cryst. coord.
        k(    1) = (   0.0000000   0.0000000   0.0000000), wk =   0.0007289
        k(    2) = (   0.0000000   0.0000000   0.0714286), wk =   0.0043732
        k(    3) = (   0.0000000   0.0000000   0.1428571), wk =   0.0043732
        k(    4) = (   0.0000000   0.0000000   0.2142857), wk =   0.0043732
        k(    5) = (   0.0000000   0.0000000   0.2857143), wk =   0.0043732
        k(    6) = (   0.0000000   0.0000000   0.3571429), wk =   0.0043732
        k(    7) = (   0.0000000   0.0000000   0.4285714), wk =   0.0043732
        k(    8) = (   0.0000000   0.0000000  -0.5000000), wk =   0.0021866
        k(    9) = (   0.0000000   0.0714286   0.0714286), wk =   0.0087464
        k(   10) = (   0.0000000   0.0714286   0.1428571), wk =   0.0174927
        k(   11) = (   0.0000000   0.0714286   0.2142857), wk =   0.0174927
        k(   12) = (   0.0000000   0.0714286   0.2857143), wk =   0.0174927
        k(   13) = (   0.0000000   0.0714286   0.3571429), wk =   0.0174927
        k(   14) = (   0.0000000   0.0714286   0.4285714), wk =   0.0174927
        k(   15) = (   0.0000000   0.0714286  -0.5000000), wk =   0.0087464
        k(   16) = (   0.0000000   0.1428571   0.1428571), wk =   0.0087464
        k(   17) = (   0.0000000   0.1428571   0.2142857), wk =   0.0174927
        k(   18) = (   0.0000000   0.1428571   0.2857143), wk =   0.0174927
        k(   19) = (   0.0000000   0.1428571   0.3571429), wk =   0.0174927
        k(   20) = (   0.0000000   0.1428571   0.4285714), wk =   0.0174927
        k(   21) = (   0.0000000   0.1428571  -0.5000000), wk =   0.0087464
        k(   22) = (   0.0000000   0.2142857   0.2142857), wk =   0.0087464
        k(   23) = (   0.0000000   0.2142857   0.2857143), wk =   0.0174927
        k(   24) = (   0.0000000   0.2142857   0.3571429), wk =   0.0174927
        k(   25) = (   0.0000000   0.2142857   0.4285714), wk =   0.0174927
        k(   26) = (   0.0000000   0.2142857  -0.5000000), wk =   0.0087464
        k(   27) = (   0.0000000   0.2857143   0.2857143), wk =   0.0087464
        k(   28) = (   0.0000000   0.2857143   0.3571429), wk =   0.0174927
        k(   29) = (   0.0000000   0.2857143   0.4285714), wk =   0.0174927
        k(   30) = (   0.0000000   0.2857143  -0.5000000), wk =   0.0087464
        k(   31) = (   0.0000000   0.3571429   0.3571429), wk =   0.0087464
        k(   32) = (   0.0000000   0.3571429   0.4285714), wk =   0.0174927
        k(   33) = (   0.0000000   0.3571429  -0.5000000), wk =   0.0087464
        k(   34) = (   0.0000000   0.4285714   0.4285714), wk =   0.0087464
        k(   35) = (   0.0000000   0.4285714  -0.5000000), wk =   0.0087464
        k(   36) = (   0.0000000  -0.5000000  -0.5000000), wk =   0.0021866
        k(   37) = (   0.0714286   0.0714286   0.0714286), wk =   0.0058309
        k(   38) = (   0.0714286   0.0714286   0.1428571), wk =   0.0174927
        k(   39) = (   0.0714286   0.0714286   0.2142857), wk =   0.0174927
        k(   40) = (   0.0714286   0.0714286   0.2857143), wk =   0.0174927
        k(   41) = (   0.0714286   0.0714286   0.3571429), wk =   0.0174927
        k(   42) = (   0.0714286   0.0714286   0.4285714), wk =   0.0174927
        k(   43) = (   0.0714286   0.0714286  -0.5000000), wk =   0.0087464
        k(   44) = (   0.0714286   0.1428571   0.1428571), wk =   0.0174927
        k(   45) = (   0.0714286   0.1428571   0.2142857), wk =   0.0349854
        k(   46) = (   0.0714286   0.1428571   0.2857143), wk =   0.0349854
        k(   47) = (   0.0714286   0.1428571   0.3571429), wk =   0.0349854
        k(   48) = (   0.0714286   0.1428571   0.4285714), wk =   0.0349854
        k(   49) = (   0.0714286   0.1428571  -0.5000000), wk =   0.0174927
        k(   50) = (   0.0714286   0.2142857   0.2142857), wk =   0.0174927
        k(   51) = (   0.0714286   0.2142857   0.2857143), wk =   0.0349854
        k(   52) = (   0.0714286   0.2142857   0.3571429), wk =   0.0349854
        k(   53) = (   0.0714286   0.2142857   0.4285714), wk =   0.0349854
        k(   54) = (   0.0714286   0.2142857  -0.5000000), wk =   0.0174927
        k(   55) = (   0.0714286   0.2857143   0.2857143), wk =   0.0174927
        k(   56) = (   0.0714286   0.2857143   0.3571429), wk =   0.0349854
        k(   57) = (   0.0714286   0.2857143   0.4285714), wk =   0.0349854
        k(   58) = (   0.0714286   0.2857143  -0.5000000), wk =   0.0174927
        k(   59) = (   0.0714286   0.3571429   0.3571429), wk =   0.0174927
        k(   60) = (   0.0714286   0.3571429   0.4285714), wk =   0.0349854
        k(   61) = (   0.0714286   0.3571429  -0.5000000), wk =   0.0174927
        k(   62) = (   0.0714286   0.4285714   0.4285714), wk =   0.0174927
        k(   63) = (   0.0714286   0.4285714  -0.5000000), wk =   0.0174927
        k(   64) = (   0.0714286  -0.5000000  -0.5000000), wk =   0.0043732
        k(   65) = (   0.1428571   0.1428571   0.1428571), wk =   0.0058309
        k(   66) = (   0.1428571   0.1428571   0.2142857), wk =   0.0174927
        k(   67) = (   0.1428571   0.1428571   0.2857143), wk =   0.0174927
        k(   68) = (   0.1428571   0.1428571   0.3571429), wk =   0.0174927
        k(   69) = (   0.1428571   0.1428571   0.4285714), wk =   0.0174927
        k(   70) = (   0.1428571   0.1428571  -0.5000000), wk =   0.0087464
        k(   71) = (   0.1428571   0.2142857   0.2142857), wk =   0.0174927
        k(   72) = (   0.1428571   0.2142857   0.2857143), wk =   0.0349854
        k(   73) = (   0.1428571   0.2142857   0.3571429), wk =   0.0349854
        k(   74) = (   0.1428571   0.2142857   0.4285714), wk =   0.0349854
        k(   75) = (   0.1428571   0.2142857  -0.5000000), wk =   0.0174927
        k(   76) = (   0.1428571   0.2857143   0.2857143), wk =   0.0174927
        k(   77) = (   0.1428571   0.2857143   0.3571429), wk =   0.0349854
        k(   78) = (   0.1428571   0.2857143   0.4285714), wk =   0.0349854
        k(   79) = (   0.1428571   0.2857143  -0.5000000), wk =   0.0174927
        k(   80) = (   0.1428571   0.3571429   0.3571429), wk =   0.0174927
        k(   81) = (   0.1428571   0.3571429   0.4285714), wk =   0.0349854
        k(   82) = (   0.1428571   0.3571429  -0.5000000), wk =   0.0174927
        k(   83) = (   0.1428571   0.4285714   0.4285714), wk =   0.0174927
        k(   84) = (   0.1428571   0.4285714  -0.5000000), wk =   0.0174927
        k(   85) = (   0.1428571  -0.5000000  -0.5000000), wk =   0.0043732
        k(   86) = (   0.2142857   0.2142857   0.2142857), wk =   0.0058309
        k(   87) = (   0.2142857   0.2142857   0.2857143), wk =   0.0174927
        k(   88) = (   0.2142857   0.2142857   0.3571429), wk =   0.0174927
        k(   89) = (   0.2142857   0.2142857   0.4285714), wk =   0.0174927
        k(   90) = (   0.2142857   0.2142857  -0.5000000), wk =   0.0087464
        k(   91) = (   0.2142857   0.2857143   0.2857143), wk =   0.0174927
        k(   92) = (   0.2142857   0.2857143   0.3571429), wk =   0.0349854
        k(   93) = (   0.2142857   0.2857143   0.4285714), wk =   0.0349854
        k(   94) = (   0.2142857   0.2857143  -0.5000000), wk =   0.0174927
        k(   95) = (   0.2142857   0.3571429   0.3571429), wk =   0.0174927
        k(   96) = (   0.2142857   0.3571429   0.4285714), wk =   0.0349854
        k(   97) = (   0.2142857   0.3571429  -0.5000000), wk =   0.0174927
        k(   98) = (   0.2142857   0.4285714   0.4285714), wk =   0.0174927
        k(   99) = (   0.2142857   0.4285714  -0.5000000), wk =   0.0174927
        k(  100) = (   0.2142857  -0.5000000  -0.5000000), wk =   0.0043732
        k(  101) = (   0.2857143   0.2857143   0.2857143), wk =   0.0058309
        k(  102) = (   0.2857143   0.2857143   0.3571429), wk =   0.0174927
        k(  103) = (   0.2857143   0.2857143   0.4285714), wk =   0.0174927
        k(  104) = (   0.2857143   0.2857143  -0.5000000), wk =   0.0087464
        k(  105) = (   0.2857143   0.3571429   0.3571429), wk =   0.0174927
        k(  106) = (   0.2857143   0.3571429   0.4285714), wk =   0.0349854
        k(  107) = (   0.2857143   0.3571429  -0.5000000), wk =   0.0174927
        k(  108) = (   0.2857143   0.4285714   0.4285714), wk =   0.0174927
        k(  109) = (   0.2857143   0.4285714  -0.5000000), wk =   0.0174927
        k(  110) = (   0.2857143  -0.5000000  -0.5000000), wk =   0.0043732
        k(  111) = (   0.3571429   0.3571429   0.3571429), wk =   0.0058309
        k(  112) = (   0.3571429   0.3571429   0.4285714), wk =   0.0174927
        k(  113) = (   0.3571429   0.3571429  -0.5000000), wk =   0.0087464
        k(  114) = (   0.3571429   0.4285714   0.4285714), wk =   0.0174927
        k(  115) = (   0.3571429   0.4285714  -0.5000000), wk =   0.0174927
        k(  116) = (   0.3571429  -0.5000000  -0.5000000), wk =   0.0043732
        k(  117) = (   0.4285714   0.4285714   0.4285714), wk =   0.0058309
        k(  118) = (   0.4285714   0.4285714  -0.5000000), wk =   0.0087464
        k(  119) = (   0.4285714  -0.5000000  -0.5000000), wk =   0.0043732
        k(  120) = (  -0.5000000  -0.5000000  -0.5000000), wk =   0.0007289

     Dense  grid:    30215 G-vectors     FFT dimensions: (  40,  40,  40)

     Dynamical RAM for                 wfc:       0.72 MB

     Dynamical RAM for     wfc (w. buffer):      22.36 MB

     Dynamical RAM for           str. fact:       0.69 MB

     Dynamical RAM for           local pot:       0.00 MB

     Dynamical RAM for          nlocal pot:       1.73 MB

     Dynamical RAM for                qrad:       4.03 MB

     Dynamical RAM for          rho,v,vnew:       1.42 MB

     Dynamical RAM for               rhoin:       0.47 MB

     Dynamical RAM for            rho*nmix:       3.69 MB

     Dynamical RAM for           G-vectors:       0.98 MB

     Dynamical RAM for          h,s,v(r/c):       0.11 MB

     Dynamical RAM for          <psi|beta>:       0.02 MB

     Dynamical RAM for                 psi:       1.44 MB

     Dynamical RAM for                hpsi:       1.44 MB

     Dynamical RAM for      wfcinit/wfcrot:       1.46 MB

     Estimated static dynamical RAM per process >      33.84 MB

     Estimated max dynamical RAM per process >      40.55 MB

     Estimated total dynamical RAM >     302.25 MB

     Initial potential from superposition of free atoms

     starting charge      40.6314, renormalised to      41.0000
     Starting wfcs are random

     total cpu time spent up to now is        0.5 secs

     per-process dynamical memory:   169.2 Mb

     Self-consistent Calculation

     iteration #  1     ecut=    70.00 Ry     beta= 0.70
     Davidson diagonalization with overlap

---- Real-time Memory Report at c_bands before calling an iterative solver
           197 MiB given to the printing process from OS
           165 MiB allocation reported by mallinfo(arena+hblkhd)
       1499159 MiB available memory on the node where the printing process lives
------------------
     ethr =  1.00E-02,  avg # of iterations = 12.3

     total cpu time spent up to now is        3.6 secs

     total energy              =    -300.03213403 Ry
     estimated scf accuracy    <       1.56783374 Ry

     iteration #  2     ecut=    70.00 Ry     beta= 0.70
     Davidson diagonalization with overlap

---- Real-time Memory Report at c_bands before calling an iterative solver
           204 MiB given to the printing process from OS
           171 MiB allocation reported by mallinfo(arena+hblkhd)
       1499122 MiB available memory on the node where the printing process lives
------------------
     ethr =  3.82E-03,  avg # of iterations =  6.7

     total cpu time spent up to now is        5.3 secs

     total energy              =    -297.33992221 Ry
     estimated scf accuracy    <      25.91999600 Ry

     iteration #  3     ecut=    70.00 Ry     beta= 0.70
     Davidson diagonalization with overlap

---- Real-time Memory Report at c_bands before calling an iterative solver
           205 MiB given to the printing process from OS
           172 MiB allocation reported by mallinfo(arena+hblkhd)
       1499121 MiB available memory on the node where the printing process lives
------------------
     ethr =  3.82E-03,  avg # of iterations =  2.6

     total cpu time spent up to now is        6.5 secs

     total energy              =    -300.94900165 Ry
     estimated scf accuracy    <       0.46791401 Ry

     iteration #  4     ecut=    70.00 Ry     beta= 0.70
     Davidson diagonalization with overlap

---- Real-time Memory Report at c_bands before calling an iterative solver
           205 MiB given to the printing process from OS
           172 MiB allocation reported by mallinfo(arena+hblkhd)
       1499122 MiB available memory on the node where the printing process lives
------------------
     ethr =  1.14E-03,  avg # of iterations =  2.0

     total cpu time spent up to now is        7.5 secs

     total energy              =    -300.89876719 Ry
     estimated scf accuracy    <       0.25444380 Ry

     iteration #  5     ecut=    70.00 Ry     beta= 0.70
     Davidson diagonalization with overlap

---- Real-time Memory Report at c_bands before calling an iterative solver
           206 MiB given to the printing process from OS
           172 MiB allocation reported by mallinfo(arena+hblkhd)
       1499122 MiB available memory on the node where the printing process lives
------------------
     ethr =  6.21E-04,  avg # of iterations =  1.6

     total cpu time spent up to now is        8.4 secs

     total energy              =    -300.92238017 Ry
     estimated scf accuracy    <       0.01251654 Ry

     iteration #  6     ecut=    70.00 Ry     beta= 0.70
     Davidson diagonalization with overlap

---- Real-time Memory Report at c_bands before calling an iterative solver
           207 MiB given to the printing process from OS
           173 MiB allocation reported by mallinfo(arena+hblkhd)
       1499121 MiB available memory on the node where the printing process lives
------------------
     ethr =  3.05E-05,  avg # of iterations =  3.1

     total cpu time spent up to now is        9.5 secs

     total energy              =    -300.92248972 Ry
     estimated scf accuracy    <       0.00213397 Ry

     iteration #  7     ecut=    70.00 Ry     beta= 0.70
     Davidson diagonalization with overlap

---- Real-time Memory Report at c_bands before calling an iterative solver
           207 MiB given to the printing process from OS
           173 MiB allocation reported by mallinfo(arena+hblkhd)
       1499121 MiB available memory on the node where the printing process lives
------------------
     ethr =  5.20E-06,  avg # of iterations =  4.0

     total cpu time spent up to now is       10.8 secs

     total energy              =    -300.92316357 Ry
     estimated scf accuracy    <       0.00232846 Ry

     iteration #  8     ecut=    70.00 Ry     beta= 0.70
     Davidson diagonalization with overlap

---- Real-time Memory Report at c_bands before calling an iterative solver
           208 MiB given to the printing process from OS
           174 MiB allocation reported by mallinfo(arena+hblkhd)
       1499121 MiB available memory on the node where the printing process lives
------------------
     ethr =  5.20E-06,  avg # of iterations =  1.4

     total cpu time spent up to now is       11.7 secs

     total energy              =    -300.92337064 Ry
     estimated scf accuracy    <       0.00007292 Ry

     iteration #  9     ecut=    70.00 Ry     beta= 0.70
     Davidson diagonalization with overlap

---- Real-time Memory Report at c_bands before calling an iterative solver
           209 MiB given to the printing process from OS
           174 MiB allocation reported by mallinfo(arena+hblkhd)
       1499120 MiB available memory on the node where the printing process lives
------------------
     ethr =  1.78E-07,  avg # of iterations =  2.9

     total cpu time spent up to now is       12.8 secs

     total energy              =    -300.92338607 Ry
     estimated scf accuracy    <       0.00000232 Ry

     iteration # 10     ecut=    70.00 Ry     beta= 0.70
     Davidson diagonalization with overlap

---- Real-time Memory Report at c_bands before calling an iterative solver
           210 MiB given to the printing process from OS
           175 MiB allocation reported by mallinfo(arena+hblkhd)
       1499120 MiB available memory on the node where the printing process lives
------------------
     ethr =  5.67E-09,  avg # of iterations =  3.4

     total cpu time spent up to now is       13.9 secs

     total energy              =    -300.92338594 Ry
     estimated scf accuracy    <       0.00000200 Ry

     iteration # 11     ecut=    70.00 Ry     beta= 0.70
     Davidson diagonalization with overlap

---- Real-time Memory Report at c_bands before calling an iterative solver
           210 MiB given to the printing process from OS
           175 MiB allocation reported by mallinfo(arena+hblkhd)
       1499120 MiB available memory on the node where the printing process lives
------------------
     ethr =  4.87E-09,  avg # of iterations =  2.0

     total cpu time spent up to now is       14.9 secs

     total energy              =    -300.92338610 Ry
     estimated scf accuracy    <       0.00000028 Ry

     iteration # 12     ecut=    70.00 Ry     beta= 0.70
     Davidson diagonalization with overlap

---- Real-time Memory Report at c_bands before calling an iterative solver
           210 MiB given to the printing process from OS
           175 MiB allocation reported by mallinfo(arena+hblkhd)
       1499120 MiB available memory on the node where the printing process lives
------------------
     ethr =  6.89E-10,  avg # of iterations =  2.1

     total cpu time spent up to now is       15.9 secs

     total energy              =    -300.92338616 Ry
     estimated scf accuracy    <          4.5E-09 Ry

     iteration # 13     ecut=    70.00 Ry     beta= 0.70
     Davidson diagonalization with overlap

---- Real-time Memory Report at c_bands before calling an iterative solver
           210 MiB given to the printing process from OS
           175 MiB allocation reported by mallinfo(arena+hblkhd)
       1499121 MiB available memory on the node where the printing process lives
------------------
     ethr =  1.10E-11,  avg # of iterations =  3.4

     total cpu time spent up to now is       17.2 secs

     total energy              =    -300.92338616 Ry
     estimated scf accuracy    <          3.3E-09 Ry

     iteration # 14     ecut=    70.00 Ry     beta= 0.70
     Davidson diagonalization with overlap

---- Real-time Memory Report at c_bands before calling an iterative solver
           210 MiB given to the printing process from OS
           175 MiB allocation reported by mallinfo(arena+hblkhd)
       1499121 MiB available memory on the node where the printing process lives
------------------
     ethr =  8.02E-12,  avg # of iterations =  2.0

     total cpu time spent up to now is       18.2 secs

     total energy              =    -300.92338616 Ry
     estimated scf accuracy    <          1.2E-10 Ry

     iteration # 15     ecut=    70.00 Ry     beta= 0.70
     Davidson diagonalization with overlap

---- Real-time Memory Report at c_bands before calling an iterative solver
           210 MiB given to the printing process from OS
           175 MiB allocation reported by mallinfo(arena+hblkhd)
       1499120 MiB available memory on the node where the printing process lives
------------------
     ethr =  2.86E-13,  avg # of iterations =  4.0

     total cpu time spent up to now is       19.5 secs

     End of self-consistent calculation

          k = 0.0000 0.0000 0.0000 (  3791 PWs)   bands (ev):

   -53.3065 -27.1425 -27.1425 -27.1425 -21.9763  -7.1988  -6.0179  -6.0179
    -3.9747  -3.9747  -3.9747   7.3369   7.3369   7.3369   9.2782   9.2782
     9.2782  10.1164  10.1164  10.1164  11.6371  11.6371  11.6371  13.9005
    13.9005

     occupation numbers 
     1.0000   1.0000   1.0000   1.0000   1.0000   1.0000   1.0000   1.0000
     1.0000   1.0000   1.0000   1.0000   1.0000   1.0000   1.0000   1.0000
     1.0000   1.0000   1.0000   1.0000   1.0000   1.0000   1.0000  -0.0000
    -0.0000

          k = 0.0000 0.0000 0.0714 (  3799 PWs)   bands (ev):

   -53.3065 -27.1443 -27.1425 -27.1425 -21.9747  -7.1984  -6.0289  -6.0158
    -3.9716  -3.9716  -3.9365   7.2620   7.3338   7.3338   9.1928   9.1928
     9.2279   9.9351  10.0641  10.0641  11.6430  11.7820  11.7820  13.9017
    14.0853

     occupation numbers 
     1.0000   1.0000   1.0000   1.0000   1.0000   1.0000   1.0000   1.0000
     1.0000   1.0000   1.0000   1.0000   1.0000   1.0000   1.0000   1.0000
     1.0000   1.0000   1.0000   1.0000   1.0000   1.0000   1.0000  -0.0000
    -0.0000

          k = 0.0000 0.0000 0.1429 (  3799 PWs)   bands (ev):

   -53.3064 -27.1493 -27.1422 -27.1422 -21.9703  -7.2038  -6.0463  -6.0097
    -3.9630  -3.9630  -3.8353   7.0526   7.3257   7.3257   8.9694   8.9694
     9.0944   9.5076   9.9639   9.9639  11.6597  12.1270  12.1270  13.9049
    14.5264

     occupation numbers 
     1.0000   1.0000   1.0000   1.0000   1.0000   1.0000   1.0000   1.0000
     1.0000   1.0000   1.0000   1.0000   1.0000   1.0000   1.0000   1.0000
     1.0000   1.0000   1.0000   1.0000   1.0000   1.0000   1.0000  -0.0000
    -0.0000

          k = 0.0000 0.0000 0.2143 (  3803 PWs)   bands (ev):

   -53.3062 -27.1564 -27.1419 -27.1419 -21.9638  -7.2277  -6.0405  -6.0006
    -3.9506  -3.9506  -3.7017   6.7496   7.3159   7.3159   8.6853   8.6853
     8.9145   9.0144   9.8677   9.8677  11.6841  12.5415  12.5415  13.9086
    15.0413

     occupation numbers 
     1.0000   1.0000   1.0000   1.0000   1.0000   1.0000   1.0000   1.0000
     1.0000   1.0000   1.0000   1.0000   1.0000   1.0000   1.0000   1.0000
     1.0000   1.0000   1.0000   1.0000   1.0000   1.0012   1.0012  -0.0000
    -0.0000

          k = 0.0000 0.0000 0.2857 (  3787 PWs)   bands (ev):

   -53.3061 -27.1643 -27.1415 -27.1415 -21.9566  -7.2724  -5.9980  -5.9904
    -3.9367  -3.9367  -3.5671   6.4117   7.3090   7.3090   8.4085   8.4085
     8.5734   8.7294   9.7867   9.7867  11.7115  12.9414  12.9414  13.9120
    15.5145

     occupation numbers 
     1.0000   1.0000   1.0000   1.0000   1.0000   1.0000   1.0000   1.0000
     1.0000   1.0000   1.0000   1.0000   1.0000   1.0000   1.0000   1.0000
     1.0000   1.0000   1.0000   1.0000   1.0000  -0.0000  -0.0000  -0.0000
    -0.0000

          k = 0.0000 0.0000 0.3571 (  3796 PWs)   bands (ev):

   -53.3059 -27.1714 -27.1412 -27.1412 -21.9501  -7.3250  -5.9812  -5.9341
    -3.9241  -3.9241  -3.4562   6.1058   7.3083   7.3083   8.1801   8.1801
     8.2371   8.5725   9.7240   9.7240  11.7366  13.2703  13.2703  13.9146
    15.8844

     occupation numbers 
     1.0000   1.0000   1.0000   1.0000   1.0000   1.0000   1.0000   1.0000
     1.0000   1.0000   1.0000   1.0000   1.0000   1.0000   1.0000   1.0000
     1.0000   1.0000   1.0000   1.0000   1.0000  -0.0000  -0.0000  -0.0000
    -0.0000

          k = 0.0000 0.0000 0.4286 (  3784 PWs)   bands (ev):

   -53.3058 -27.1764 -27.1409 -27.1409 -21.9456  -7.3659  -5.9747  -5.8782
    -3.9153  -3.9153  -3.3844   5.8943   7.3131   7.3131   8.0283   8.0283
     8.0295   8.4697   9.6852   9.6852  11.7541  13.4865  13.4865  13.9162
    16.1183

     occupation numbers 
     1.0000   1.0000   1.0000   1.0000   1.0000   1.0000   1.0000   1.0000
     1.0000   1.0000   1.0000   1.0000   1.0000   1.0000   1.0000   1.0000
     1.0000   1.0000   1.0000   1.0000   1.0000  -0.0000  -0.0000  -0.0000
    -0.0000

          k = 0.0000 0.0000-0.5000 (  3804 PWs)   bands (ev):

   -53.3058 -27.1781 -27.1409 -27.1409 -21.9440  -7.3811  -5.9727  -5.8564
    -3.9122  -3.9122  -3.3597   5.8183   7.3157   7.3157   7.9593   7.9741
     7.9741   8.4329   9.6720   9.6720  11.7604  13.5618  13.5618  13.9167
    16.1976

     occupation numbers 
     1.0000   1.0000   1.0000   1.0000   1.0000   1.0000   1.0000   1.0000
     1.0000   1.0000   1.0000   1.0000   1.0000   1.0000   1.0000   1.0000
     1.0000   1.0000   1.0000   1.0000   1.0000  -0.0000  -0.0000  -0.0000
    -0.0000

          k = 0.0000 0.0714 0.0714 (  3799 PWs)   bands (ev):

   -53.3064 -27.1443 -27.1442 -27.1424 -21.9732  -7.1964  -6.0350  -6.0189
    -3.9685  -3.9525  -3.9165   7.2115   7.3070   7.3312   9.0178   9.1166
     9.2806   9.8346   9.9620  10.0041  11.7682  11.8053  11.8936  13.9942
    14.1799

     occupation numbers 
     1.0000   1.0000   1.0000   1.0000   1.0000   1.0000   1.0000   1.0000
     1.0000   1.0000   1.0000   1.0000   1.0000   1.0000   1.0000   1.0000
     1.0000   1.0000   1.0000   1.0000   1.0000   1.0000   1.0000  -0.0000
    -0.0000

          k = 0.0000 0.0714 0.1429 (  3805 PWs)   bands (ev):

   -53.3063 -27.1492 -27.1440 -27.1421 -21.9687  -7.1971  -6.0542  -6.0129
    -3.9599  -3.9384  -3.8266   7.0194   7.2814   7.3238   8.7387   8.9116
     9.2200   9.4848   9.8468   9.8884  11.7975  12.1327  12.1857  14.0308
    14.5906

     occupation numbers 
     1.0000   1.0000   1.0000   1.0000   1.0000   1.0000   1.0000   1.0000
     1.0000   1.0000   1.0000   1.0000   1.0000   1.0000   1.0000   1.0000
     1.0000   1.0000   1.0000   1.0000   1.0000   1.0000   1.0000  -0.0000
    -0.0000

          k = 0.0000 0.0714 0.2143 (  3796 PWs)   bands (ev):

   -53.3062 -27.1563 -27.1436 -27.1418 -21.9624  -7.2141  -6.0542  -6.0011
    -3.9474  -3.9267  -3.7000   6.7276   7.2589   7.3152   8.4148   8.6424
     8.9804   9.1675   9.7487   9.7805  11.8188  12.5442  12.5650  14.0396
    15.1053

     occupation numbers 
     1.0000   1.0000   1.0000   1.0000   1.0000   1.0000   1.0000   1.0000
     1.0000   1.0000   1.0000   1.0000   1.0000   1.0000   1.0000   1.0000
     1.0000   1.0000   1.0000   1.0000   1.0000   1.0021   1.0336  -0.0000
    -0.0000

          k = 0.0000 0.0714 0.2857 (  3793 PWs)   bands (ev):

   -53.3060 -27.1642 -27.1433 -27.1414 -21.9553  -7.2522  -6.0202  -5.9860
    -3.9334  -3.9145  -3.5719   6.3984   7.2400   7.3093   8.0831   8.3740
     8.6512   8.9829   9.6659   9.6923  11.8426  12.9422  12.9472  14.0438
    15.5812

     occupation numbers 
     1.0000   1.0000   1.0000   1.0000   1.0000   1.0000   1.0000   1.0000
     1.0000   1.0000   1.0000   1.0000   1.0000   1.0000   1.0000   1.0000
     1.0000   1.0000   1.0000   1.0000   1.0000  -0.0000  -0.0000  -0.0000
    -0.0000

          k = 0.0000 0.0714 0.3571 (  3784 PWs)   bands (ev):

   -53.3059 -27.1713 -27.1429 -27.1411 -21.9489  -7.2997  -5.9842  -5.9512
    -3.9207  -3.9035  -3.4663   6.0982   7.2340   7.3105   7.7876   8.1503
     8.4129   8.8345   9.6020   9.6271  11.8646  13.2696  13.2700  14.0457
    15.9537

     occupation numbers 
     1.0000   1.0000   1.0000   1.0000   1.0000   1.0000   1.0000   1.0000
     1.0000   1.0000   1.0000   1.0000   1.0000   1.0000   1.0000   1.0000
     1.0000   1.0000   1.0000   1.0000   1.0000  -0.0000  -0.0000  -0.0000
    -0.0000

          k = 0.0000 0.0714 0.4286 (  3784 PWs)   bands (ev):

   -53.3058 -27.1762 -27.1427 -27.1409 -21.9445  -7.3378  -5.9728  -5.9017
    -3.9119  -3.8958  -3.3980   5.8891   7.2516   7.3166   7.5695   8.0001
     8.2751   8.7355   9.5614   9.5861  11.8800  13.4849  13.4854  14.0458
    16.1889

     occupation numbers 
     1.0000   1.0000   1.0000   1.0000   1.0000   1.0000   1.0000   1.0000
     1.0000   1.0000   1.0000   1.0000   1.0000   1.0000   1.0000   1.0000
     1.0000   1.0000   1.0000   1.0000   1.0000  -0.0000  -0.0000  -0.0000
    -0.0000

          k = 0.0000 0.0714-0.5000 (  3800 PWs)   bands (ev):

   -53.3058 -27.1780 -27.1426 -27.1408 -21.9429  -7.3523  -5.9695  -5.8814
    -3.9087  -3.8931  -3.3746   5.8139   7.2751   7.3203   7.4760   7.9462
     8.2297   8.7006   9.5465   9.5721  11.8855  13.5605  13.5606  14.0454
    16.2686

     occupation numbers 
     1.0000   1.0000   1.0000   1.0000   1.0000   1.0000   1.0000   1.0000
     1.0000   1.0000   1.0000   1.0000   1.0000   1.0000   1.0000   1.0000
     1.0000   1.0000   1.0000   1.0000   1.0000  -0.0000  -0.0000  -0.0000
    -0.0000

          k = 0.0000 0.1429 0.1429 (  3795 PWs)   bands (ev):

   -53.3062 -27.1491 -27.1487 -27.1419 -21.9645  -7.1836  -6.0803  -6.0065
    -3.9511  -3.8925  -3.7840   6.8936   7.1907   7.3188   8.3983   8.7489
     9.2828   9.2999   9.6848   9.7359  12.0860  12.1897  12.3703  14.2121
    14.8673

     occupation numbers 
     1.0000   1.0000   1.0000   1.0000   1.0000   1.0000   1.0000   1.0000
     1.0000   1.0000   1.0000   1.0000   1.0000   1.0000   1.0000   1.0000
     1.0000   1.0000   1.0000   1.0000   1.0000   1.0000   1.0000  -0.0000
    -0.0000

          k = 0.0000 0.1429 0.2143 (  3792 PWs)   bands (ev):

   -53.3061 -27.1560 -27.1485 -27.1416 -21.9584  -7.1795  -6.0972  -5.9900
    -3.9384  -3.8681  -3.6910   6.6541   7.1142   7.3133   8.0297   8.5191
     8.9687   9.2830   9.5919   9.5920  12.1415  12.5547  12.6590  14.2863
    15.3320

     occupation numbers 
     1.0000   1.0000   1.0000   1.0000   1.0000   1.0000   1.0000   1.0000
     1.0000   1.0000   1.0000   1.0000   1.0000   1.0000   1.0000   1.0000
     1.0000   1.0000   1.0000   1.0000   1.0000   1.0127  -0.0000  -0.0000
    -0.0000

          k = 0.0000 0.1429 0.2857 (  3792 PWs)   bands (ev):

   -53.3059 -27.1639 -27.1481 -27.1412 -21.9516  -7.1961  -6.0810  -5.9705
    -3.9241  -3.8563  -3.5842   6.3569   7.0537   7.3115   7.6757   8.2767
     8.6882   9.2492   9.4800   9.4904  12.1613  12.9453  12.9879  14.3131
    15.7999

     occupation numbers 
     1.0000   1.0000   1.0000   1.0000   1.0000   1.0000   1.0000   1.0000
     1.0000   1.0000   1.0000   1.0000   1.0000   1.0000   1.0000   1.0000
     1.0000   1.0000   1.0000   1.0000   1.0000  -0.0000  -0.0000  -0.0000
    -0.0000

          k = 0.0000 0.1429 0.3571 (  3773 PWs)   bands (ev):

   -53.3058 -27.1710 -27.1477 -27.1409 -21.9455  -7.2273  -6.0372  -5.9536
    -3.9112  -3.8485  -3.4938   6.0752   7.0082   7.3169   7.3874   8.0668
     8.4983   9.2115   9.3897   9.4006  12.1782  13.2691  13.2859  14.3235
    16.1737

     occupation numbers 
     1.0000   1.0000   1.0000   1.0000   1.0000   1.0000   1.0000   1.0000
     1.0000   1.0000   1.0000   1.0000   1.0000   1.0000   1.0000   1.0000
     1.0000   1.0000   1.0000   1.0000   1.0000  -0.0000  -0.0000  -0.0000
    -0.0000

          k = 0.0000 0.1429 0.4286 (  3781 PWs)   bands (ev):

   -53.3057 -27.1758 -27.1475 -27.1406 -21.9412  -7.2562  -5.9899  -5.9458
    -3.9022  -3.8434  -3.4350   5.8740   6.9826   7.1995   7.3272   7.9220
     8.3890   9.1884   9.3117   9.3522  12.1898  13.4825  13.4926  14.3264
    16.4105

     occupation numbers 
     1.0000   1.0000   1.0000   1.0000   1.0000   1.0000   1.0000   1.0000
     1.0000   1.0000   1.0000   1.0000   1.0000   1.0000   1.0000   1.0000
     1.0000   1.0000   1.0000   1.0000   1.0000  -0.0000  -0.0000  -0.0000
    -0.0000

          k = 0.0000 0.1429-0.5000 (  3794 PWs)   bands (ev):

   -53.3057 -27.1776 -27.1474 -27.1406 -21.9397  -7.2677  -5.9648  -5.9492
    -3.8989  -3.8416  -3.4148   5.8011   6.9768   7.1321   7.3331   7.8691
     8.3532   9.1833   9.2803   9.3356  12.1939  13.5568  13.5667  14.3266
    16.4911

     occupation numbers 
     1.0000   1.0000   1.0000   1.0000   1.0000   1.0000   1.0000   1.0000
     1.0000   1.0000   1.0000   1.0000   1.0000   1.0000   1.0000   1.0000
     1.0000   1.0000   1.0000   1.0000   1.0000  -0.0000  -0.0000  -0.0000
    -0.0000

          k = 0.0000 0.2143 0.2143 (  3780 PWs)   bands (ev):

   -53.3059 -27.1559 -27.1553 -27.1412 -21.9527  -7.1411  -6.1404  -5.9704
    -3.9253  -3.8103  -3.6596   6.5037   6.9514   7.3125   7.6296   8.3370
     8.8529   9.1809   9.4021   9.6464  12.4822  12.6214  12.8445  14.4543
    15.7283

     occupation numbers 
     1.0000   1.0000   1.0000   1.0000   1.0000   1.0000   1.0000   1.0000
     1.0000   1.0000   1.0000   1.0000   1.0000   1.0000   1.0000   1.0000
     1.0000   1.0000   1.0000   1.0000   1.0000  -0.0308  -0.0000  -0.0000
    -0.0000

          k = 0.0000 0.2143 0.2857 (  3791 PWs)   bands (ev):

   -53.3058 -27.1634 -27.1551 -27.1409 -21.9463  -7.1186  -6.1522  -5.9525
    -3.9106  -3.7831  -3.5970   6.2759   6.8209   7.2595   7.3160   8.1325
     8.6869   9.1269   9.2501   9.6789  12.5486  12.9531  13.0948  14.5343
    16.1701

     occupation numbers 
     1.0000   1.0000   1.0000   1.0000   1.0000   1.0000   1.0000   1.0000
     1.0000   1.0000   1.0000   1.0000   1.0000   1.0000   1.0000   1.0000
     1.0000   1.0000   1.0000   1.0000   1.0049  -0.0000  -0.0000  -0.0000
    -0.0000

          k = 0.0000 0.2143 0.3571 (  3779 PWs)   bands (ev):

   -53.3056 -27.1704 -27.1547 -27.1406 -21.9406  -7.1183  -6.1235  -5.9455
    -3.8973  -3.7750  -3.5306   6.0325   6.6983   7.0030   7.3270   7.9461
     8.5733   9.0903   9.1436   9.6668  12.5639  13.2689  13.3471  14.5707
    16.5396

     occupation numbers 
     1.0000   1.0000   1.0000   1.0000   1.0000   1.0000   1.0000   1.0000
     1.0000   1.0000   1.0000   1.0000   1.0000   1.0000   1.0000   1.0000
     1.0000   1.0000   1.0000   1.0000   1.0320  -0.0000  -0.0000  -0.0000
    -0.0000

          k = 0.0000 0.2143 0.4286 (  3776 PWs)   bands (ev):

   -53.3055 -27.1753 -27.1544 -27.1403 -21.9366  -7.1288  -6.0734  -5.9554
    -3.8881  -3.7725  -3.4844   5.8482   6.5782   6.8919   7.3444   7.8115
     8.5133   9.0630   9.0802   9.6424  12.5727  13.4791  13.5327  14.5860
    16.7775

     occupation numbers 
     1.0000   1.0000   1.0000   1.0000   1.0000   1.0000   1.0000   1.0000
     1.0000   1.0000   1.0000   1.0000   1.0000   1.0000   1.0000   1.0000
     1.0000   1.0000   1.0000   1.0000   1.0207  -0.0000  -0.0000  -0.0000
    -0.0000

          k = 0.0000 0.2143-0.5000 (  3764 PWs)   bands (ev):

   -53.3055 -27.1770 -27.1543 -27.1402 -21.9351  -7.1344  -6.0417  -5.9697
    -3.8848  -3.7718  -3.4682   5.7800   6.5287   6.8651   7.3541   7.7605
     8.4953   9.0526   9.0594   9.6314  12.5758  13.5527  13.6010  14.5901
    16.8591

     occupation numbers 
     1.0000   1.0000   1.0000   1.0000   1.0000   1.0000   1.0000   1.0000
     1.0000   1.0000   1.0000   1.0000   1.0000   1.0000   1.0000   1.0000
     1.0000   1.0000   1.0000   1.0000   0.9933  -0.0000  -0.0000  -0.0000
    -0.0000

          k = 0.0000 0.2857 0.2857 (  3762 PWs)   bands (ev):

   -53.3056 -27.1632 -27.1626 -27.1405 -21.9404  -7.0425  -6.2013  -5.9424
    -3.8955  -3.7241  -3.5947   6.1359   6.6266   6.8556   7.3262   7.9675
     8.6501   9.0387   9.0562   9.8504  12.8829  13.0068  13.2675  14.6612
    16.5996

     occupation numbers 
     1.0000   1.0000   1.0000   1.0000   1.0000   1.0000   1.0000   1.0000
     1.0000   1.0000   1.0000   1.0000   1.0000   1.0000   1.0000   1.0000
     1.0000   1.0000   1.0000   1.0000  -0.0000  -0.0000  -0.0000  -0.0000
    -0.0000

          k = 0.0000 0.2857 0.3571 (  3781 PWs)   bands (ev):

   -53.3055 -27.1699 -27.1624 -27.1402 -21.9351  -6.9908  -6.2050  -5.9508
    -3.8818  -3.7017  -3.5650   5.9556   6.4291   6.6025   7.3427   7.8104
     8.6307   8.9142   8.9925   9.9401  12.9407  13.2711  13.4634  14.7259
    16.9718

     occupation numbers 
     1.0000   1.0000   1.0000   1.0000   1.0000   1.0000   1.0000   1.0000
     1.0000   1.0000   1.0000   1.0000   1.0000   1.0000   1.0000   1.0000
     1.0000   1.0000   1.0000   1.0000  -0.0000  -0.0000  -0.0000  -0.0000
    -0.0000

          k = 0.0000 0.2857 0.4286 (  3782 PWs)   bands (ev):

   -53.3054 -27.1747 -27.1621 -27.1400 -21.9314  -6.9687  -6.1681  -5.9789
    -3.8723  -3.6991  -3.5323   5.8039   6.2280   6.5361   7.3663   7.6908
     8.6385   8.8291   8.9551   9.9769  12.9490  13.4763  13.6183  14.7559
    17.2159

     occupation numbers 
     1.0000   1.0000   1.0000   1.0000   1.0000   1.0000   1.0000   1.0000
     1.0000   1.0000   1.0000   1.0000   1.0000   1.0000   1.0000   1.0000
     1.0000   1.0000   1.0000   1.0000  -0.0000  -0.0000  -0.0000  -0.0000
    -0.0000

          k = 0.0000 0.2857-0.5000 (  3774 PWs)   bands (ev):

   -53.3054 -27.1764 -27.1620 -27.1399 -21.9301  -6.9638  -6.1387  -6.0015
    -3.8689  -3.6993  -3.5195   5.7446   6.1562   6.5208   7.3805   7.6425
     8.6476   8.8010   8.9380   9.9863  12.9513  13.5488  13.6771  14.7646
    17.3004

     occupation numbers 
     1.0000   1.0000   1.0000   1.0000   1.0000   1.0000   1.0000   1.0000
     1.0000   1.0000   1.0000   1.0000   1.0000   1.0000   1.0000   1.0000
     1.0000   1.0000   1.0000   1.0000  -0.0000  -0.0000  -0.0000  -0.0000
    -0.0000

          k = 0.0000 0.3571 0.3571 (  3784 PWs)   bands (ev):

   -53.3054 -27.1695 -27.1692 -27.1399 -21.9301  -6.8727  -6.2519  -5.9813
    -3.8678  -3.6498  -3.5810   5.8370   6.2018   6.3111   7.3640   7.6825
     8.6871   8.7387   8.9562  10.1130  13.2269  13.3006  13.6102  14.8102
    17.3572

     occupation numbers 
     1.0000   1.0000   1.0000   1.0000   1.0000   1.0000   1.0000   1.0000
     1.0000   1.0000   1.0000   1.0000   1.0000   1.0000   1.0000   1.0000
     1.0000   1.0000   1.0000   1.0000  -0.0000  -0.0000  -0.0000  -0.0000
    -0.0000

          k = 0.0000 0.3571 0.4286 (  3773 PWs)   bands (ev):

   -53.3053 -27.1741 -27.1690 -27.1396 -21.9267  -6.7949  -6.2459  -6.0353
    -3.8580  -3.6372  -3.5671   5.7252   5.9640   6.2364   7.3914   7.5829
     8.6300   8.7487   8.9271  10.2023  13.2621  13.4747  13.7342  14.8509
    17.6152

     occupation numbers 
     1.0000   1.0000   1.0000   1.0000   1.0000   1.0000   1.0000   1.0000
     1.0000   1.0000   1.0000   1.0000   1.0000   1.0000   1.0000   1.0000
     1.0000   1.0000   1.0000   1.0000  -0.0000  -0.0000  -0.0000  -0.0000
    -0.0000

          k = 0.0000 0.3571-0.5000 (  3778 PWs)   bands (ev):

   -53.3052 -27.1759 -27.1689 -27.1396 -21.9255  -6.7704  -6.2216  -6.0735
    -3.8545  -3.6376  -3.5568   5.6801   5.8774   6.2193   7.4095   7.5389
     8.5930   8.7836   8.9057  10.2290  13.2640  13.5460  13.7827  14.8629
    17.7050

     occupation numbers 
     1.0000   1.0000   1.0000   1.0000   1.0000   1.0000   1.0000   1.0000
     1.0000   1.0000   1.0000   1.0000   1.0000   1.0000   1.0000   1.0000
     1.0000   1.0000   1.0000   1.0000  -0.0000  -0.0000  -0.0000  -0.0000
    -0.0000

          k = 0.0000 0.4286 0.4286 (  3774 PWs)   bands (ev):

   -53.3052 -27.1738 -27.1737 -27.1394 -21.9234  -6.6414  -6.2847  -6.1229
    -3.8480  -3.5998  -3.5821   5.6295   5.7768   6.0902   7.4165   7.5048
     8.5017   8.8332   8.9200  10.3256  13.4608  13.4828  13.8363  14.8973
    17.8868

     occupation numbers 
     1.0000   1.0000   1.0000   1.0000   1.0000   1.0000   1.0000   1.0000
     1.0000   1.0000   1.0000   1.0000   1.0000   1.0000   1.0000   1.0000
     1.0000   1.0000   1.0000   1.0000  -0.0000  -0.0000  -0.0000  -0.0000
    -0.0000

          k = 0.0000 0.4286-0.5000 (  3772 PWs)   bands (ev):

   -53.3051 -27.1755 -27.1736 -27.1393 -21.9223  -6.5735  -6.2768  -6.1892
    -3.8445  -3.5965  -3.5765   5.5864   5.7050   6.0551   7.4344   7.4690
     8.4573   8.8771   8.9068  10.3643  13.4714  13.5446  13.8770  14.9112
    17.9822

     occupation numbers 
     1.0000   1.0000   1.0000   1.0000   1.0000   1.0000   1.0000   1.0000
     1.0000   1.0000   1.0000   1.0000   1.0000   1.0000   1.0000   1.0000
     1.0000   1.0000   1.0000   1.0000  -0.0000  -0.0000  -0.0000  -0.0000
    -0.0000

          k = 0.0000-0.5000-0.5000 (  3724 PWs)   bands (ev):

   -53.3051 -27.1753 -27.1753 -27.1393 -21.9211  -6.4381  -6.2958  -6.2958
    -3.8409  -3.5821  -3.5821   5.5385   5.6473   6.0121   7.4447   7.4447
     8.4102   8.9114   8.9114  10.4079  13.5444  13.5444  13.9154  14.9260
    18.0806

     occupation numbers 
     1.0000   1.0000   1.0000   1.0000   1.0000   1.0000   1.0000   1.0000
     1.0000   1.0000   1.0000   1.0000   1.0000   1.0000   1.0000   1.0000
     1.0000   1.0000   1.0000   1.0000  -0.0000  -0.0000  -0.0000  -0.0000
    -0.0000

          k = 0.0714 0.0714 0.0714 (  3803 PWs)   bands (ev):

   -53.3064 -27.1443 -27.1441 -27.1441 -21.9716  -7.1930  -6.0317  -6.0317
    -3.9514  -3.9514  -3.8948   7.1599   7.3049   7.3049   8.9533   8.9533
     9.3320   9.7059   9.9261   9.9261  11.8641  11.9154  11.9154  14.1808
    14.1808

     occupation numbers 
     1.0000   1.0000   1.0000   1.0000   1.0000   1.0000   1.0000   1.0000
     1.0000   1.0000   1.0000   1.0000   1.0000   1.0000   1.0000   1.0000
     1.0000   1.0000   1.0000   1.0000   1.0000   1.0000   1.0000  -0.0000
    -0.0000

          k = 0.0714 0.0714 0.1429 (  3812 PWs)   bands (ev):

   -53.3063 -27.1491 -27.1439 -27.1438 -21.9673  -7.1894  -6.0552  -6.0224
    -3.9484  -3.9290  -3.8138   6.9817   7.2647   7.2994   8.6706   8.7532
     9.3151   9.4003   9.7678   9.8413  11.9055  12.1840  12.2013  14.1830
    14.6285

     occupation numbers 
     1.0000   1.0000   1.0000   1.0000   1.0000   1.0000   1.0000   1.0000
     1.0000   1.0000   1.0000   1.0000   1.0000   1.0000   1.0000   1.0000
     1.0000   1.0000   1.0000   1.0000   1.0000   1.0000   1.0000  -0.0000
    -0.0000

          k = 0.0714 0.0714 0.2143 (  3786 PWs)   bands (ev):

   -53.3061 -27.1562 -27.1436 -27.1435 -21.9610  -7.2000  -6.0594  -6.0085
    -3.9441  -3.9088  -3.6958   6.7036   7.2261   7.2939   8.3725   8.4296
     9.0794   9.2087   9.6264   9.7476  11.9276  12.5647  12.5743  14.1852
    15.1539

     occupation numbers 
     1.0000   1.0000   1.0000   1.0000   1.0000   1.0000   1.0000   1.0000
     1.0000   1.0000   1.0000   1.0000   1.0000   1.0000   1.0000   1.0000
     1.0000   1.0000   1.0000   1.0000   1.0000   1.0333   1.0089  -0.0000
    -0.0000

          k = 0.0714 0.0714 0.2857 (  3779 PWs)   bands (ev):

   -53.3060 -27.1641 -27.1432 -27.1431 -21.9540  -7.2317  -6.0281  -5.9931
    -3.9394  -3.8883  -3.5754   6.3847   7.1917   7.2917   8.0577   8.1012
     8.8359   9.0584   9.5155   9.6660  11.9511  12.9468  12.9531  14.1861
    15.6365

     occupation numbers 
     1.0000   1.0000   1.0000   1.0000   1.0000   1.0000   1.0000   1.0000
     1.0000   1.0000   1.0000   1.0000   1.0000   1.0000   1.0000   1.0000
     1.0000   1.0000   1.0000   1.0000   1.0000  -0.0000  -0.0000  -0.0000
    -0.0000

          k = 0.0714 0.0714 0.3571 (  3777 PWs)   bands (ev):

   -53.3058 -27.1712 -27.1429 -27.1428 -21.9477  -7.2744  -5.9791  -5.9732
    -3.9352  -3.8700  -3.4761   6.0906   7.1757   7.2969   7.7268   7.8834
     8.6733   8.9153   9.4332   9.6036  11.9724  13.2675  13.2746  14.1853
    16.0131

     occupation numbers 
     1.0000   1.0000   1.0000   1.0000   1.0000   1.0000   1.0000   1.0000
     1.0000   1.0000   1.0000   1.0000   1.0000   1.0000   1.0000   1.0000
     1.0000   1.0000   1.0000   1.0000   1.0000  -0.0000  -0.0000  -0.0000
    -0.0000

          k = 0.0714 0.0714 0.4286 (  3791 PWs)   bands (ev):

   -53.3058 -27.1761 -27.1426 -27.1426 -21.9433  -7.3098  -5.9694  -5.9231
    -3.9324  -3.8573  -3.4121   5.8841   7.1974   7.3092   7.4788   7.7368
     8.5800   8.8157   9.3808   9.5638  11.9871  13.4803  13.4904  14.1831
    16.2503

     occupation numbers 
     1.0000   1.0000   1.0000   1.0000   1.0000   1.0000   1.0000   1.0000
     1.0000   1.0000   1.0000   1.0000   1.0000   1.0000   1.0000   1.0000
     1.0000   1.0000   1.0000   1.0000   1.0000  -0.0000  -0.0000  -0.0000
    -0.0000

          k = 0.0714 0.0714-0.5000 (  3796 PWs)   bands (ev):

   -53.3057 -27.1778 -27.1425 -27.1425 -21.9418  -7.3233  -5.9659  -5.9031
    -3.9314  -3.8527  -3.3901   5.8098   7.2428   7.3171   7.3555   7.6832
     8.5494   8.7804   9.3626   9.5502  11.9924  13.5547  13.5668  14.1816
    16.3310

     occupation numbers 
     1.0000   1.0000   1.0000   1.0000   1.0000   1.0000   1.0000   1.0000
     1.0000   1.0000   1.0000   1.0000   1.0000   1.0000   1.0000   1.0000
     1.0000   1.0000   1.0000   1.0000   1.0000  -0.0000  -0.0000  -0.0000
    -0.0000

          k = 0.0714 0.1429 0.1429 (  3795 PWs)   bands (ev):

   -53.3062 -27.1490 -27.1486 -27.1437 -21.9631  -7.1729  -6.0741  -6.0219
    -3.9394  -3.8966  -3.7651   6.8524   7.1905   7.2832   8.3783   8.5882
     9.1574   9.3785   9.6677   9.7064  12.1485  12.2496  12.3797  14.4030
    14.8675

     occupation numbers 
     1.0000   1.0000   1.0000   1.0000   1.0000   1.0000   1.0000   1.0000
     1.0000   1.0000   1.0000   1.0000   1.0000   1.0000   1.0000   1.0000
     1.0000   1.0000   1.0000   1.0000   1.0000   1.0000   1.0000  -0.0000
    -0.0000

          k = 0.0714 0.1429 0.2143 (  3783 PWs)   bands (ev):

   -53.3060 -27.1559 -27.1484 -27.1433 -21.9571  -7.1640  -6.0913  -6.0044
    -3.9359  -3.8661  -3.6790   6.6244   7.1053   7.2757   8.0279   8.3402
     8.9212   9.3373   9.5417   9.6037  12.2071  12.5838  12.6674  14.4662
    15.3457

     occupation numbers 
     1.0000   1.0000   1.0000   1.0000   1.0000   1.0000   1.0000   1.0000
     1.0000   1.0000   1.0000   1.0000   1.0000   1.0000   1.0000   1.0000
     1.0000   1.0000   1.0000   1.0000   1.0000   0.8221  -0.0000  -0.0000
    -0.0000

          k = 0.0714 0.1429 0.2857 (  3789 PWs)   bands (ev):

   -53.3059 -27.1638 -27.1480 -27.1429 -21.9503  -7.1752  -6.0773  -5.9828
    -3.9358  -3.8397  -3.5833   6.3408   7.0295   7.2744   7.6833   8.0546
     8.7819   9.2345   9.4240   9.5178  12.2311  12.9569  12.9950  14.4823
    15.8266

     occupation numbers 
     1.0000   1.0000   1.0000   1.0000   1.0000   1.0000   1.0000   1.0000
     1.0000   1.0000   1.0000   1.0000   1.0000   1.0000   1.0000   1.0000
     1.0000   1.0000   1.0000   1.0000   1.0000  -0.0000  -0.0000  -0.0000
    -0.0000

          k = 0.0714 0.1429 0.3571 (  3775 PWs)   bands (ev):

   -53.3057 -27.1708 -27.1476 -27.1426 -21.9443  -7.2021  -6.0354  -5.9637
    -3.9378  -3.8168  -3.5025   6.0674   6.9746   7.2829   7.3941   7.8178
     8.7101   9.1324   9.3150   9.4507  12.2506  13.2728  13.2928  14.4860
    16.2081

     occupation numbers 
     1.0000   1.0000   1.0000   1.0000   1.0000   1.0000   1.0000   1.0000
     1.0000   1.0000   1.0000   1.0000   1.0000   1.0000   1.0000   1.0000
     1.0000   1.0000   1.0000   1.0000   1.0000  -0.0000  -0.0000  -0.0000
    -0.0000

          k = 0.0714 0.1429 0.4286 (  3780 PWs)   bands (ev):

   -53.3057 -27.1757 -27.1474 -27.1424 -21.9401  -7.2283  -5.9897  -5.9539
    -3.9398  -3.8008  -3.4501   5.8697   6.9521   7.1945   7.3026   7.6567
     8.6773   9.0678   9.2273   9.4093  12.2637  13.4822  13.5011  14.4847
    16.4489

     occupation numbers 
     1.0000   1.0000   1.0000   1.0000   1.0000   1.0000   1.0000   1.0000
     1.0000   1.0000   1.0000   1.0000   1.0000   1.0000   1.0000   1.0000
     1.0000   1.0000   1.0000   1.0000   1.0000  -0.0000  -0.0000  -0.0000
    -0.0000

          k = 0.0714 0.1429-0.5000 (  3780 PWs)   bands (ev):

   -53.3056 -27.1775 -27.1473 -27.1423 -21.9386  -7.2389  -5.9623  -5.9591
    -3.9406  -3.7950  -3.4321   5.7978   6.9543   7.1173   7.3153   7.5955
     8.6680   9.0482   9.1919   9.3950  12.2683  13.5556  13.5760  14.4833
    16.5310

     occupation numbers 
     1.0000   1.0000   1.0000   1.0000   1.0000   1.0000   1.0000   1.0000
     1.0000   1.0000   1.0000   1.0000   1.0000   1.0000   1.0000   1.0000
     1.0000   1.0000   1.0000   1.0000   1.0000  -0.0000  -0.0000  -0.0000
    -0.0000

          k = 0.0714 0.2143 0.2143 (  3780 PWs)   bands (ev):

   -53.3059 -27.1558 -27.1552 -27.1430 -21.9514  -7.1230  -6.1307  -5.9842
    -3.9279  -3.8215  -3.6415   6.4749   6.9526   7.2640   7.6407   8.1968
     8.7053   9.2950   9.4134   9.6385  12.5195  12.6543  12.8540  14.6491
    15.7277

     occupation numbers 
     1.0000   1.0000   1.0000   1.0000   1.0000   1.0000   1.0000   1.0000
     1.0000   1.0000   1.0000   1.0000   1.0000   1.0000   1.0000   1.0000
     1.0000   1.0000   1.0000   1.0000   1.0000  -0.0001  -0.0000  -0.0000
    -0.0000

          k = 0.0714 0.2143 0.2857 (  3778 PWs)   bands (ev):

   -53.3058 -27.1633 -27.1550 -27.1426 -21.9451  -7.0969  -6.1422  -5.9626
    -3.9250  -3.7868  -3.5878   6.2587   6.8160   7.2346   7.3050   7.9824
     8.6019   9.1740   9.3084   9.6762  12.5896  12.9717  13.1041  14.7254
    16.1745

     occupation numbers 
     1.0000   1.0000   1.0000   1.0000   1.0000   1.0000   1.0000   1.0000
     1.0000   1.0000   1.0000   1.0000   1.0000   1.0000   1.0000   1.0000
     1.0000   1.0000   1.0000   1.0000   0.6133  -0.0000  -0.0000  -0.0000
    -0.0000

          k = 0.0714 0.2143 0.3571 (  3782 PWs)   bands (ev):

   -53.3056 -27.1703 -27.1546 -27.1423 -21.9394  -7.0931  -6.1162  -5.9502
    -3.9272  -3.7603  -3.5361   6.0251   6.6894   7.0142   7.2787   7.7729
     8.5970   9.0170   9.2581   9.6665  12.6093  13.2800  13.3556  14.7555
    16.5505

     occupation numbers 
     1.0000   1.0000   1.0000   1.0000   1.0000   1.0000   1.0000   1.0000
     1.0000   1.0000   1.0000   1.0000   1.0000   1.0000   1.0000   1.0000
     1.0000   1.0000   1.0000   1.0000   0.0021  -0.0000  -0.0000  -0.0000
    -0.0000

          k = 0.0714 0.2143 0.4286 (  3786 PWs)   bands (ev):

   -53.3055 -27.1752 -27.1543 -27.1420 -21.9354  -7.1013  -6.0711  -5.9531
    -3.9308  -3.7422  -3.5008   5.8449   6.5787   6.8947   7.3013   7.6164
     8.6513   8.8716   9.2262   9.6435  12.6208  13.4875  13.5411  14.7661
    16.7924

     occupation numbers 
     1.0000   1.0000   1.0000   1.0000   1.0000   1.0000   1.0000   1.0000
     1.0000   1.0000   1.0000   1.0000   1.0000   1.0000   1.0000   1.0000
     1.0000   1.0000   1.0000   1.0000  -0.0320  -0.0000  -0.0000  -0.0000
    -0.0000

          k = 0.0714 0.2143-0.5000 (  3772 PWs)   bands (ev):

   -53.3055 -27.1769 -27.1542 -27.1419 -21.9340  -7.1060  -6.0449  -5.9613
    -3.9323  -3.7357  -3.4884   5.7775   6.5345   6.8630   7.3197   7.5523
     8.7379   8.7561   9.2151   9.6331  12.6247  13.5606  13.6095  14.7684
    16.8755

     occupation numbers 
     1.0000   1.0000   1.0000   1.0000   1.0000   1.0000   1.0000   1.0000
     1.0000   1.0000   1.0000   1.0000   1.0000   1.0000   1.0000   1.0000
     1.0000   1.0000   1.0000   1.0000  -0.0237  -0.0000  -0.0000  -0.0000
    -0.0000

          k = 0.0714 0.2857 0.2857 (  3777 PWs)   bands (ev):

   -53.3056 -27.1631 -27.1625 -27.1422 -21.9392  -7.0195  -6.1882  -5.9482
    -3.9154  -3.7424  -3.5810   6.1239   6.6281   6.8694   7.2688   7.8511
     8.4881   9.1191   9.1558   9.8492  12.9080  13.0305  13.2773  14.8579
    16.5982

     occupation numbers 
     1.0000   1.0000   1.0000   1.0000   1.0000   1.0000   1.0000   1.0000
     1.0000   1.0000   1.0000   1.0000   1.0000   1.0000   1.0000   1.0000
     1.0000   1.0000   1.0000   1.0000  -0.0000  -0.0000  -0.0000  -0.0000
    -0.0000

          k = 0.0714 0.2857 0.3571 (  3776 PWs)   bands (ev):

   -53.3055 -27.1698 -27.1623 -27.1419 -21.9339  -6.9656  -6.1920  -5.9502
    -3.9117  -3.7107  -3.5645   5.9519   6.4370   6.6147   7.2788   7.6929
     8.4769   8.9794   9.1243   9.9406  12.9699  13.2885  13.4732  14.9207
    16.9722

     occupation numbers 
     1.0000   1.0000   1.0000   1.0000   1.0000   1.0000   1.0000   1.0000
     1.0000   1.0000   1.0000   1.0000   1.0000   1.0000   1.0000   1.0000
     1.0000   1.0000   1.0000   1.0000  -0.0000  -0.0000  -0.0000  -0.0000
    -0.0000

          k = 0.0714 0.2857 0.4286 (  3792 PWs)   bands (ev):

   -53.3054 -27.1746 -27.1620 -27.1417 -21.9302  -6.9415  -6.1587  -5.9715
    -3.9120  -3.6906  -3.5491   5.8028   6.2477   6.5403   7.3068   7.5575
     8.5137   8.8732   9.0996   9.9780  12.9813  13.4910  13.6277  14.9474
    17.2185

     occupation numbers 
     1.0000   1.0000   1.0000   1.0000   1.0000   1.0000   1.0000   1.0000
     1.0000   1.0000   1.0000   1.0000   1.0000   1.0000   1.0000   1.0000
     1.0000   1.0000   1.0000   1.0000  -0.0000  -0.0000  -0.0000  -0.0000
    -0.0000

          k = 0.0714 0.2857-0.5000 (  3784 PWs)   bands (ev):

   -53.3053 -27.1763 -27.1619 -27.1416 -21.9289  -6.9360  -6.1328  -5.9892
    -3.9127  -3.6834  -3.5432   5.7434   6.1802   6.5232   7.3312   7.4951
     8.5393   8.8291   9.0892   9.9876  12.9847  13.5631  13.6863  14.9547
    17.3037

     occupation numbers 
     1.0000   1.0000   1.0000   1.0000   1.0000   1.0000   1.0000   1.0000
     1.0000   1.0000   1.0000   1.0000   1.0000   1.0000   1.0000   1.0000
     1.0000   1.0000   1.0000   1.0000  -0.0000  -0.0000  -0.0000  -0.0000
    -0.0000

          k = 0.0714 0.3571 0.3571 (  3781 PWs)   bands (ev):

   -53.3053 -27.1694 -27.1691 -27.1416 -21.9290  -6.8470  -6.2361  -5.9750
    -3.8989  -3.6741  -3.5795   5.8393   6.2273   6.3126   7.2912   7.5880
     8.4157   8.9382   9.0723  10.1146  13.2484  13.3228  13.6204  15.0058
    17.3560

     occupation numbers 
     1.0000   1.0000   1.0000   1.0000   1.0000   1.0000   1.0000   1.0000
     1.0000   1.0000   1.0000   1.0000   1.0000   1.0000   1.0000   1.0000
     1.0000   1.0000   1.0000   1.0000  -0.0000  -0.0000  -0.0000  -0.0000
    -0.0000

          k = 0.0714 0.3571 0.4286 (  3777 PWs)   bands (ev):

   -53.3052 -27.1740 -27.1689 -27.1413 -21.9255  -6.7684  -6.2309  -6.0231
    -3.8918  -3.6518  -3.5833   5.7280   5.9961   6.2386   7.3198   7.4879
     8.3887   8.9217   9.0479  10.2047  13.2867  13.4942  13.7442  15.0447
    17.6144

     occupation numbers 
     1.0000   1.0000   1.0000   1.0000   1.0000   1.0000   1.0000   1.0000
     1.0000   1.0000   1.0000   1.0000   1.0000   1.0000   1.0000   1.0000
     1.0000   1.0000   1.0000   1.0000  -0.0000  -0.0000  -0.0000  -0.0000
    -0.0000

          k = 0.0714 0.3571-0.5000 (  3774 PWs)   bands (ev):

   -53.3052 -27.1757 -27.1688 -27.1413 -21.9243  -6.7432  -6.2089  -6.0574
    -3.8897  -3.6439  -3.5835   5.6805   5.9151   6.2214   7.3477   7.4335
     8.3801   8.9245   9.0348  10.2318  13.2899  13.5649  13.7927  15.0557
    17.7046

     occupation numbers 
     1.0000   1.0000   1.0000   1.0000   1.0000   1.0000   1.0000   1.0000
     1.0000   1.0000   1.0000   1.0000   1.0000   1.0000   1.0000   1.0000
     1.0000   1.0000   1.0000   1.0000  -0.0000  -0.0000  -0.0000  -0.0000
    -0.0000

          k = 0.0714 0.4286 0.4286 (  3780 PWs)   bands (ev):

   -53.3051 -27.1737 -27.1736 -27.1411 -21.9223  -6.6150  -6.2674  -6.1068
    -3.8769  -3.6282  -3.6004   5.6328   5.8178   6.0913   7.3405   7.4245
     8.3049   8.9685   9.0330  10.3292  13.4828  13.5050  13.8465  15.0899
    17.8861

     occupation numbers 
     1.0000   1.0000   1.0000   1.0000   1.0000   1.0000   1.0000   1.0000
     1.0000   1.0000   1.0000   1.0000   1.0000   1.0000   1.0000   1.0000
     1.0000   1.0000   1.0000   1.0000  -0.0000  -0.0000  -0.0000  -0.0000
    -0.0000

          k = 0.0714 0.4286-0.5000 (  3770 PWs)   bands (ev):

   -53.3051 -27.1754 -27.1735 -27.1410 -21.9211  -6.5469  -6.2601  -6.1705
    -3.8715  -3.6199  -3.6055   5.5874   5.7514   6.0563   7.3628   7.3866
     8.2751   8.9961   9.0227  10.3685  13.4946  13.5662  13.8874  15.1030
    17.9820

     occupation numbers 
     1.0000   1.0000   1.0000   1.0000   1.0000   1.0000   1.0000   1.0000
     1.0000   1.0000   1.0000   1.0000   1.0000   1.0000   1.0000   1.0000
     1.0000   1.0000   1.0000   1.0000  -0.0000  -0.0000  -0.0000  -0.0000
    -0.0000

          k = 0.0714-0.5000-0.5000 (  3788 PWs)   bands (ev):

   -53.3051 -27.1752 -27.1752 -27.1410 -21.9200  -6.4104  -6.2782  -6.2782
    -3.8647  -3.6120  -3.6120   5.5384   5.6960   6.0124   7.3690   7.3690
     8.2373   9.0220   9.0220  10.4112  13.5666  13.5666  13.9254  15.1165
    18.0798

     occupation numbers 
     1.0000   1.0000   1.0000   1.0000   1.0000   1.0000   1.0000   1.0000
     1.0000   1.0000   1.0000   1.0000   1.0000   1.0000   1.0000   1.0000
     1.0000   1.0000   1.0000   1.0000  -0.0000  -0.0000  -0.0000  -0.0000
    -0.0000

          k = 0.1429 0.1429 0.1429 (  3791 PWs)   bands (ev):

   -53.3061 -27.1489 -27.1484 -27.1484 -21.9591  -7.1472  -6.0565  -6.0565
    -3.9085  -3.9085  -3.7139   6.7304   7.1902   7.1902   8.2915   8.2915
     8.8428   9.4867   9.6199   9.6199  12.3198  12.4280  12.4280  14.8673
    14.8673

     occupation numbers 
     1.0000   1.0000   1.0000   1.0000   1.0000   1.0000   1.0000   1.0000
     1.0000   1.0000   1.0000   1.0000   1.0000   1.0000   1.0000   1.0000
     1.0000   1.0000   1.0000   1.0000   1.0000   1.0000   1.0000  -0.0000
    -0.0000

          k = 0.1429 0.1429 0.2143 (  3785 PWs)   bands (ev):

   -53.3059 -27.1556 -27.1483 -27.1480 -21.9532  -7.1233  -6.0832  -6.0305
    -3.9262  -3.8659  -3.6453   6.5363   7.0672   7.1910   7.9924   8.0354
     8.6197   9.5002   9.5072   9.5515  12.3999  12.6756  12.7032  14.8656
    15.4205

     occupation numbers 
     1.0000   1.0000   1.0000   1.0000   1.0000   1.0000   1.0000   1.0000
     1.0000   1.0000   1.0000   1.0000   1.0000   1.0000   1.0000   1.0000
     1.0000   1.0000   1.0000   1.0000   1.0000  -0.0000  -0.0000  -0.0000
    -0.0000

          k = 0.1429 0.1429 0.2857 (  3781 PWs)   bands (ev):

   -53.3058 -27.1635 -27.1479 -27.1477 -21.9468  -7.1173  -6.0804  -6.0008
    -3.9467  -3.8194  -3.5775   6.2927   6.9458   7.1954   7.6660   7.7333
     8.5683   9.3651   9.4632   9.4724  12.4318  13.0019  13.0214  14.8614
    15.9328

     occupation numbers 
     1.0000   1.0000   1.0000   1.0000   1.0000   1.0000   1.0000   1.0000
     1.0000   1.0000   1.0000   1.0000   1.0000   1.0000   1.0000   1.0000
     1.0000   1.0000   1.0000   1.0000   1.0000  -0.0000  -0.0000  -0.0000
    -0.0000

          k = 0.1429 0.1429 0.3571 (  3782 PWs)   bands (ev):

   -53.3057 -27.1705 -27.1475 -27.1473 -21.9409  -7.1299  -6.0500  -5.9733
    -3.9660  -3.7770  -3.5238   6.0443   6.8573   7.2072   7.3486   7.5308
     8.5926   9.2265   9.3802   9.4155  12.4560  13.2940  13.3146  14.8550
    16.3320

     occupation numbers 
     1.0000   1.0000   1.0000   1.0000   1.0000   1.0000   1.0000   1.0000
     1.0000   1.0000   1.0000   1.0000   1.0000   1.0000   1.0000   1.0000
     1.0000   1.0000   1.0000   1.0000   1.0000  -0.0000  -0.0000  -0.0000
    -0.0000

          k = 0.1429 0.1429 0.4286 (  3777 PWs)   bands (ev):

   -53.3056 -27.1754 -27.1472 -27.1471 -21.9369  -7.1474  -6.0147  -5.9538
    -3.9799  -3.7470  -3.4907   5.8571   6.8204   7.1340   7.2315   7.3893
     8.6462   9.1066   9.3132   9.3776  12.4716  13.4942  13.5205  14.8479
    16.5826

     occupation numbers 
     1.0000   1.0000   1.0000   1.0000   1.0000   1.0000   1.0000   1.0000
     1.0000   1.0000   1.0000   1.0000   1.0000   1.0000   1.0000   1.0000
     1.0000   1.0000   1.0000   1.0000   1.0000  -0.0000  -0.0000  -0.0000
    -0.0000

          k = 0.1429 0.1429-0.5000 (  3772 PWs)   bands (ev):

   -53.3055 -27.1771 -27.1471 -27.1470 -21.9354  -7.1550  -5.9996  -5.9468
    -3.9850  -3.7362  -3.4796   5.7876   6.8188   7.0511   7.2595   7.3217
     8.6783   9.0527   9.2878   9.3648  12.4771  13.5653  13.5948  14.8448
    16.6676

     occupation numbers 
     1.0000   1.0000   1.0000   1.0000   1.0000   1.0000   1.0000   1.0000
     1.0000   1.0000   1.0000   1.0000   1.0000   1.0000   1.0000   1.0000
     1.0000   1.0000   1.0000   1.0000   1.0000  -0.0000  -0.0000  -0.0000
    -0.0000

          k = 0.1429 0.2143 0.2143 (  3783 PWs)   bands (ev):

   -53.3058 -27.1555 -27.1550 -27.1478 -21.9477  -7.0740  -6.1027  -6.0196
    -3.9247  -3.8533  -3.6024   6.3949   6.9562   7.1383   7.6619   7.9225
     8.3194   9.4512   9.4642   9.6404  12.6464  12.7595  12.8816  15.1314
    15.7251

     occupation numbers 
     1.0000   1.0000   1.0000   1.0000   1.0000   1.0000   1.0000   1.0000
     1.0000   1.0000   1.0000   1.0000   1.0000   1.0000   1.0000   1.0000
     1.0000   1.0000   1.0000   1.0000  -0.0006  -0.0000  -0.0000  -0.0000
    -0.0000

          k = 0.1429 0.2143 0.2857 (  3773 PWs)   bands (ev):

   -53.3057 -27.1630 -27.1548 -27.1474 -21.9416  -7.0363  -6.1154  -5.9887
    -3.9471  -3.8110  -3.5663   6.2106   6.7997   7.1211   7.3256   7.6970
     8.2427   9.3512   9.4139   9.6875  12.7201  13.0375  13.1302  15.1933
    16.1938

     occupation numbers 
     1.0000   1.0000   1.0000   1.0000   1.0000   1.0000   1.0000   1.0000
     1.0000   1.0000   1.0000   1.0000   1.0000   1.0000   1.0000   1.0000
     1.0000   1.0000   1.0000   1.0000  -0.0000  -0.0000  -0.0000  -0.0000
    -0.0000

          k = 0.1429 0.2143 0.3571 (  3783 PWs)   bands (ev):

   -53.3055 -27.1700 -27.1544 -27.1471 -21.9360  -7.0211  -6.0995  -5.9608
    -3.9757  -3.7580  -3.5467   6.0049   6.6570   7.0389   7.1528   7.4815
     8.2689   9.2546   9.3616   9.6811  12.7488  13.3212  13.3797  15.2051
    16.5933

     occupation numbers 
     1.0000   1.0000   1.0000   1.0000   1.0000   1.0000   1.0000   1.0000
     1.0000   1.0000   1.0000   1.0000   1.0000   1.0000   1.0000   1.0000
     1.0000   1.0000   1.0000   1.0000  -0.0000  -0.0000  -0.0000  -0.0000
    -0.0000

          k = 0.1429 0.2143 0.4286 (  3792 PWs)   bands (ev):

   -53.3054 -27.1748 -27.1541 -27.1468 -21.9322  -7.0213  -6.0698  -5.9445
    -3.9975  -3.7126  -3.5428   5.8356   6.5641   6.8998   7.1682   7.3259
     8.3112   9.1797   9.3223   9.6589  12.7659  13.5178  13.5644  15.2045
    16.8488

     occupation numbers 
     1.0000   1.0000   1.0000   1.0000   1.0000   1.0000   1.0000   1.0000
     1.0000   1.0000   1.0000   1.0000   1.0000   1.0000   1.0000   1.0000
     1.0000   1.0000   1.0000   1.0000  -0.0000  -0.0000  -0.0000  -0.0000
    -0.0000

          k = 0.1429 0.2143-0.5000 (  3786 PWs)   bands (ev):

   -53.3054 -27.1766 -27.1540 -27.1467 -21.9308  -7.0233  -6.0547  -5.9400
    -4.0055  -3.6937  -3.5444   5.7702   6.5331   6.8534   7.2087   7.2408
     8.3308   9.1503   9.3079   9.6485  12.7718  13.5877  13.6328  15.2032
    16.9360

     occupation numbers 
     1.0000   1.0000   1.0000   1.0000   1.0000   1.0000   1.0000   1.0000
     1.0000   1.0000   1.0000   1.0000   1.0000   1.0000   1.0000   1.0000
     1.0000   1.0000   1.0000   1.0000  -0.0000  -0.0000  -0.0000  -0.0000
    -0.0000

          k = 0.1429 0.2857 0.2857 (  3775 PWs)   bands (ev):

   -53.3055 -27.1628 -27.1622 -27.1470 -21.9358  -6.9542  -6.1503  -5.9648
    -3.9527  -3.7948  -3.5594   6.0920   6.6327   6.9014   7.1334   7.6104
     8.0679   9.2812   9.3842   9.8558  12.9980  13.1048  13.3057  15.3532
    16.5939

     occupation numbers 
     1.0000   1.0000   1.0000   1.0000   1.0000   1.0000   1.0000   1.0000
     1.0000   1.0000   1.0000   1.0000   1.0000   1.0000   1.0000   1.0000
     1.0000   1.0000   1.0000   1.0000  -0.0000  -0.0000  -0.0000  -0.0000
    -0.0000

          k = 0.1429 0.2857 0.3571 (  3779 PWs)   bands (ev):

   -53.3054 -27.1695 -27.1620 -27.1467 -21.9306  -6.8935  -6.1554  -5.9500
    -3.9722  -3.7551  -3.5664   5.9418   6.4527   6.6524   7.1196   7.4559
     8.0490   9.2243   9.3452   9.9472  13.0646  13.3449  13.5009  15.4120
    16.9746

     occupation numbers 
     1.0000   1.0000   1.0000   1.0000   1.0000   1.0000   1.0000   1.0000
     1.0000   1.0000   1.0000   1.0000   1.0000   1.0000   1.0000   1.0000
     1.0000   1.0000   1.0000   1.0000  -0.0000  -0.0000  -0.0000  -0.0000
    -0.0000

          k = 0.1429 0.2857 0.4286 (  3789 PWs)   bands (ev):

   -53.3053 -27.1743 -27.1617 -27.1464 -21.9270  -6.8629  -6.1331  -5.9512
    -3.9921  -3.7048  -3.5889   5.7996   6.2974   6.5550   7.1440   7.3132
     8.0728   9.1983   9.3002   9.9849  13.0832  13.5374  13.6544  15.4315
    17.2290

     occupation numbers 
     1.0000   1.0000   1.0000   1.0000   1.0000   1.0000   1.0000   1.0000
     1.0000   1.0000   1.0000   1.0000   1.0000   1.0000   1.0000   1.0000
     1.0000   1.0000   1.0000   1.0000  -0.0000  -0.0000  -0.0000  -0.0000
    -0.0000

          k = 0.1429 0.2857-0.5000 (  3784 PWs)   bands (ev):

   -53.3052 -27.1760 -27.1616 -27.1464 -21.9257  -6.8548  -6.1166  -5.9565
    -4.0000  -3.6737  -3.6094   5.7399   6.2436   6.5300   7.1914   7.2247
     8.0855   9.1950   9.2772   9.9945  13.0891  13.6070  13.7128  15.4358
    17.3171

     occupation numbers 
     1.0000   1.0000   1.0000   1.0000   1.0000   1.0000   1.0000   1.0000
     1.0000   1.0000   1.0000   1.0000   1.0000   1.0000   1.0000   1.0000
     1.0000   1.0000   1.0000   1.0000  -0.0000  -0.0000  -0.0000  -0.0000
    -0.0000

          k = 0.1429 0.3571 0.3571 (  3776 PWs)   bands (ev):

   -53.3052 -27.1691 -27.1688 -27.1463 -21.9257  -6.7734  -6.1903  -5.9589
    -3.9695  -3.7438  -3.5902   5.8447   6.2996   6.3166   7.1181   7.3831
     7.9548   9.2061   9.3329  10.1211  13.3206  13.3892  13.6492  15.5058
    17.3512

     occupation numbers 
     1.0000   1.0000   1.0000   1.0000   1.0000   1.0000   1.0000   1.0000
     1.0000   1.0000   1.0000   1.0000   1.0000   1.0000   1.0000   1.0000
     1.0000   1.0000   1.0000   1.0000  -0.0000  -0.0000  -0.0000  -0.0000
    -0.0000

          k = 0.1429 0.3571 0.4286 (  3775 PWs)   bands (ev):

   -53.3051 -27.1738 -27.1686 -27.1461 -21.9223  -6.6916  -6.1878  -5.9898
    -3.9726  -3.7118  -3.6239   5.7331   6.0867   6.2458   7.1450   7.2877
     7.9295   9.2188   9.3047  10.2127  13.3640  13.5527  13.7728  15.5423
    17.6119

     occupation numbers 
     1.0000   1.0000   1.0000   1.0000   1.0000   1.0000   1.0000   1.0000
     1.0000   1.0000   1.0000   1.0000   1.0000   1.0000   1.0000   1.0000
     1.0000   1.0000   1.0000   1.0000  -0.0000  -0.0000  -0.0000  -0.0000
    -0.0000

          k = 0.1429 0.3571-0.5000 (  3784 PWs)   bands (ev):

   -53.3051 -27.1755 -27.1685 -27.1460 -21.9211  -6.6645  -6.1728  -6.0130
    -3.9749  -3.6752  -3.6595   5.6802   6.0195   6.2268   7.1913   7.2144
     7.9256   9.2418   9.2767  10.2402  13.3698  13.6208  13.8211  15.5515
    17.7033

     occupation numbers 
     1.0000   1.0000   1.0000   1.0000   1.0000   1.0000   1.0000   1.0000
     1.0000   1.0000   1.0000   1.0000   1.0000   1.0000   1.0000   1.0000
     1.0000   1.0000   1.0000   1.0000  -0.0000  -0.0000  -0.0000  -0.0000
    -0.0000

          k = 0.1429 0.4286 0.4286 (  3787 PWs)   bands (ev):

   -53.3050 -27.1734 -27.1733 -27.1459 -21.9191  -6.5393  -6.2167  -6.0615
    -3.9527  -3.7094  -3.6569   5.6379   5.9356   6.0941   7.1647   7.2458
     7.8536   9.2509   9.3039  10.3395  13.5495  13.5708  13.8756  15.5876
    17.8837

     occupation numbers 
     1.0000   1.0000   1.0000   1.0000   1.0000   1.0000   1.0000   1.0000
     1.0000   1.0000   1.0000   1.0000   1.0000   1.0000   1.0000   1.0000
     1.0000   1.0000   1.0000   1.0000  -0.0000  -0.0000  -0.0000  -0.0000
    -0.0000

          k = 0.1429 0.4286-0.5000 (  3776 PWs)   bands (ev):

   -53.3050 -27.1751 -27.1733 -27.1458 -21.9179  -6.4706  -6.2119  -6.1169
    -3.9447  -3.6888  -3.6882   5.5885   5.8809   6.0590   7.1970   7.2044
     7.8301   9.2805   9.2888  10.3797  13.5636  13.6298  13.9166  15.5995
    17.9806

     occupation numbers 
     1.0000   1.0000   1.0000   1.0000   1.0000   1.0000   1.0000   1.0000
     1.0000   1.0000   1.0000   1.0000   1.0000   1.0000   1.0000   1.0000
     1.0000   1.0000   1.0000   1.0000  -0.0000  -0.0000  -0.0000  -0.0000
    -0.0000

          k = 0.1429-0.5000-0.5000 (  3780 PWs)   bands (ev):

   -53.3050 -27.1750 -27.1750 -27.1457 -21.9168  -6.3304  -6.2258  -6.2258
    -3.9303  -3.6971  -3.6971   5.5393   5.8339   6.0150   7.2001   7.2001
     7.7975   9.2951   9.2951  10.4244  13.6329  13.6329  13.9548  15.6118
    18.0804

     occupation numbers 
     1.0000   1.0000   1.0000   1.0000   1.0000   1.0000   1.0000   1.0000
     1.0000   1.0000   1.0000   1.0000   1.0000   1.0000   1.0000   1.0000
     1.0000   1.0000   1.0000   1.0000  -0.0000  -0.0000  -0.0000  -0.0000
    -0.0000

          k = 0.2143 0.2143 0.2143 (  3785 PWs)   bands (ev):

   -53.3057 -27.1553 -27.1546 -27.1546 -21.9424  -7.0094  -6.0606  -6.0606
    -3.9009  -3.9009  -3.5669   6.2798   6.9622   6.9622   7.6447   7.6447
     7.8866   9.4918   9.4918   9.7188  12.8403  12.9415  12.9415  15.7198
    15.7198

     occupation numbers 
     1.0000   1.0000   1.0000   1.0000   1.0000   1.0000   1.0000   1.0000
     1.0000   1.0000   1.0000   1.0000   1.0000   1.0000   1.0000   1.0000
     1.0000   1.0000   1.0000   1.0000  -0.0000  -0.0000  -0.0000  -0.0000
    -0.0000

          k = 0.2143 0.2143 0.2857 (  3790 PWs)   bands (ev):

   -53.3055 -27.1626 -27.1546 -27.1542 -21.9366  -6.9502  -6.0878  -6.0115
    -3.9565  -3.8541  -3.5510   6.1392   6.7591   6.9707   7.3348   7.4082
     7.8074   9.4555   9.5095   9.7766  12.9305  13.1523  13.1803  15.7111
    16.2757

     occupation numbers 
     1.0000   1.0000   1.0000   1.0000   1.0000   1.0000   1.0000   1.0000
     1.0000   1.0000   1.0000   1.0000   1.0000   1.0000   1.0000   1.0000
     1.0000   1.0000   1.0000   1.0000  -0.0000  -0.0000  -0.0000  -0.0000
    -0.0000

          k = 0.2143 0.2143 0.3571 (  3798 PWs)   bands (ev):

   -53.3054 -27.1695 -27.1541 -27.1539 -21.9312  -6.9125  -6.0908  -5.9648
    -4.0093  -3.7911  -3.5600   5.9734   6.5832   6.9826   7.0350   7.2280
     7.8522   9.4200   9.5010   9.7800  12.9673  13.3965  13.4230  15.6999
    16.7130

     occupation numbers 
     1.0000   1.0000   1.0000   1.0000   1.0000   1.0000   1.0000   1.0000
     1.0000   1.0000   1.0000   1.0000   1.0000   1.0000   1.0000   1.0000
     1.0000   1.0000   1.0000   1.0000  -0.0000  -0.0000  -0.0000  -0.0000
    -0.0000

          k = 0.2143 0.2143 0.4286 (  3784 PWs)   bands (ev):

   -53.3053 -27.1744 -27.1538 -27.1536 -21.9276  -6.8969  -6.0788  -5.9307
    -4.0475  -3.7238  -3.5913   5.8202   6.4904   6.8559   7.0018   7.1075
     7.8942   9.3980   9.4827   9.7613  12.9895  13.5731  13.6046  15.6899
    16.9874

     occupation numbers 
     1.0000   1.0000   1.0000   1.0000   1.0000   1.0000   1.0000   1.0000
     1.0000   1.0000   1.0000   1.0000   1.0000   1.0000   1.0000   1.0000
     1.0000   1.0000   1.0000   1.0000  -0.0000  -0.0000  -0.0000  -0.0000
    -0.0000

          k = 0.2143 0.2143-0.5000 (  3778 PWs)   bands (ev):

   -53.3052 -27.1761 -27.1537 -27.1535 -21.9262  -6.8935  -6.0716  -5.9182
    -4.0615  -3.6798  -3.6228   5.7571   6.4669   6.7941   7.0357   7.0399
     7.9107   9.3910   9.4734   9.7513  12.9971  13.6372  13.6720  15.6858
    17.0805

     occupation numbers 
     1.0000   1.0000   1.0000   1.0000   1.0000   1.0000   1.0000   1.0000
     1.0000   1.0000   1.0000   1.0000   1.0000   1.0000   1.0000   1.0000
     1.0000   1.0000   1.0000   1.0000  -0.0000  -0.0000  -0.0000  -0.0000
    -0.0000

          k = 0.2143 0.2857 0.2857 (  3783 PWs)   bands (ev):

   -53.3054 -27.1623 -27.1619 -27.1540 -21.9309  -6.8587  -6.0923  -5.9915
    -3.9750  -3.8736  -3.5563   6.0489   6.6404   6.8533   7.0497   7.3612
     7.5463   9.4722   9.5644   9.9004  13.1557  13.2337  13.3480  15.9723
    16.5857

     occupation numbers 
     1.0000   1.0000   1.0000   1.0000   1.0000   1.0000   1.0000   1.0000
     1.0000   1.0000   1.0000   1.0000   1.0000   1.0000   1.0000   1.0000
     1.0000   1.0000   1.0000   1.0000  -0.0000  -0.0000  -0.0000  -0.0000
    -0.0000

          k = 0.2143 0.2857 0.3571 (  3788 PWs)   bands (ev):

   -53.3052 -27.1690 -27.1617 -27.1536 -21.9259  -6.7846  -6.1027  -5.9529
    -4.0252  -3.8351  -3.5862   5.9277   6.4610   6.7036   6.9258   7.1970
     7.5528   9.4682   9.5850   9.9778  13.2230  13.4447  13.5420  16.0216
    16.9864

     occupation numbers 
     1.0000   1.0000   1.0000   1.0000   1.0000   1.0000   1.0000   1.0000
     1.0000   1.0000   1.0000   1.0000   1.0000   1.0000   1.0000   1.0000
     1.0000   1.0000   1.0000   1.0000  -0.0000  -0.0000  -0.0000  -0.0000
    -0.0000

          k = 0.2143 0.2857 0.4286 (  3781 PWs)   bands (ev):

   -53.3051 -27.1738 -27.1614 -27.1533 -21.9224  -6.7414  -6.0991  -5.9247
    -4.0692  -3.7712  -3.6369   5.7925   6.3479   6.5809   6.9282   7.0611
     7.5919   9.4716   9.5783  10.0111  13.2486  13.6180  13.6942  16.0277
    17.2607

     occupation numbers 
     1.0000   1.0000   1.0000   1.0000   1.0000   1.0000   1.0000   1.0000
     1.0000   1.0000   1.0000   1.0000   1.0000   1.0000   1.0000   1.0000
     1.0000   1.0000   1.0000   1.0000  -0.0000  -0.0000  -0.0000  -0.0000
    -0.0000

          k = 0.2143 0.2857-0.5000 (  3788 PWs)   bands (ev):

   -53.3051 -27.1755 -27.1613 -27.1532 -21.9211  -6.7284  -6.0945  -5.9150
    -4.0858  -3.7047  -3.6982   5.7316   6.3181   6.5380   6.9626   6.9849
     7.6076   9.4764   9.5690  10.0191  13.2569  13.6814  13.7521  16.0272
    17.3549

     occupation numbers 
     1.0000   1.0000   1.0000   1.0000   1.0000   1.0000   1.0000   1.0000
     1.0000   1.0000   1.0000   1.0000   1.0000   1.0000   1.0000   1.0000
     1.0000   1.0000   1.0000   1.0000  -0.0000  -0.0000  -0.0000  -0.0000
    -0.0000

          k = 0.2143 0.3571 0.3571 (  3777 PWs)   bands (ev):

   -53.3051 -27.1687 -27.1684 -27.1532 -21.9211  -6.6619  -6.1195  -5.9417
    -4.0418  -3.8490  -3.6310   5.8488   6.3227   6.4009   6.9047   7.1651
     7.4199   9.4997   9.6168  10.1385  13.4448  13.4981  13.6917  16.1439
    17.3417

     occupation numbers 
     1.0000   1.0000   1.0000   1.0000   1.0000   1.0000   1.0000   1.0000
     1.0000   1.0000   1.0000   1.0000   1.0000   1.0000   1.0000   1.0000
     1.0000   1.0000   1.0000   1.0000  -0.0000  -0.0000  -0.0000  -0.0000
    -0.0000

          k = 0.2143 0.3571 0.4286 (  3780 PWs)   bands (ev):

   -53.3050 -27.1733 -27.1682 -27.1530 -21.9177  -6.5739  -6.1228  -5.9446
    -4.0653  -3.8173  -3.6901   5.7342   6.2027   6.2704   6.9254   7.0695
     7.4076   9.5333   9.6158  10.2279  13.4907  13.6484  13.8152  16.1797
    17.6072

     occupation numbers 
     1.0000   1.0000   1.0000   1.0000   1.0000   1.0000   1.0000   1.0000
     1.0000   1.0000   1.0000   1.0000   1.0000   1.0000   1.0000   1.0000
     1.0000   1.0000   1.0000   1.0000  -0.0000  -0.0000  -0.0000  -0.0000
    -0.0000

          k = 0.2143 0.3571-0.5000 (  3778 PWs)   bands (ev):

   -53.3050 -27.1750 -27.1681 -27.1529 -21.9165  -6.5426  -6.1186  -5.9505
    -4.0762  -3.7716  -3.7427   5.6759   6.1675   6.2348   6.9706   6.9930
     7.4126   9.5559   9.6033  10.2558  13.4995  13.7110  13.8632  16.1868
    17.7019

     occupation numbers 
     1.0000   1.0000   1.0000   1.0000   1.0000   1.0000   1.0000   1.0000
     1.0000   1.0000   1.0000   1.0000   1.0000   1.0000   1.0000   1.0000
     1.0000   1.0000   1.0000   1.0000  -0.0000  -0.0000  -0.0000  -0.0000
    -0.0000

          k = 0.2143 0.4286 0.4286 (  3776 PWs)   bands (ev):

   -53.3049 -27.1730 -27.1730 -27.1527 -21.9145  -6.4242  -6.1376  -5.9957
    -4.0510  -3.8320  -3.7502   5.6373   6.0985   6.1078   6.9544   7.0519
     7.3137   9.5833   9.6310  10.3559  13.6575  13.6752  13.9188  16.2310
    17.8782

     occupation numbers 
     1.0000   1.0000   1.0000   1.0000   1.0000   1.0000   1.0000   1.0000
     1.0000   1.0000   1.0000   1.0000   1.0000   1.0000   1.0000   1.0000
     1.0000   1.0000   1.0000   1.0000  -0.0000  -0.0000  -0.0000  -0.0000
    -0.0000

          k = 0.2143 0.4286-0.5000 (  3774 PWs)   bands (ev):

   -53.3049 -27.1747 -27.1729 -27.1526 -21.9133  -6.3547  -6.1371  -6.0365
    -4.0441  -3.8126  -3.7970   5.5844   6.0634   6.0669   6.9976   7.0085
     7.2890   9.6126   9.6250  10.3971  13.6732  13.7300  13.9598  16.2421
    17.9777

     occupation numbers 
     1.0000   1.0000   1.0000   1.0000   1.0000   1.0000   1.0000   1.0000
     1.0000   1.0000   1.0000   1.0000   1.0000   1.0000   1.0000   1.0000
     1.0000   1.0000   1.0000   1.0000  -0.0000  -0.0000  -0.0000  -0.0000
    -0.0000

          k = 0.2143-0.5000-0.5000 (  3788 PWs)   bands (ev):

   -53.3048 -27.1746 -27.1746 -27.1526 -21.9122  -6.2115  -6.1441  -6.1441
    -4.0228  -3.8259  -3.8259   5.5345   6.0184   6.0322   7.0146   7.0146
     7.2407   9.6328   9.6328  10.4426  13.7365  13.7365  13.9983  16.2540
    18.0806

     occupation numbers 
     1.0000   1.0000   1.0000   1.0000   1.0000   1.0000   1.0000   1.0000
     1.0000   1.0000   1.0000   1.0000   1.0000   1.0000   1.0000   1.0000
     1.0000   1.0000   1.0000   1.0000  -0.0000  -0.0000  -0.0000  -0.0000
    -0.0000

          k = 0.2857 0.2857 0.2857 (  3785 PWs)   bands (ev):

   -53.3052 -27.1620 -27.1615 -27.1615 -21.9255  -6.7515  -6.0230  -6.0230
    -3.9662  -3.9662  -3.5817   5.9950   6.6507   6.6507   7.0340   7.1475
     7.1475   9.6378   9.6378   9.9900  13.3419  13.4095  13.4095  16.5731
    16.5731

     occupation numbers 
     1.0000   1.0000   1.0000   1.0000   1.0000   1.0000   1.0000   1.0000
     1.0000   1.0000   1.0000   1.0000   1.0000   1.0000   1.0000   1.0000
     1.0000   1.0000   1.0000   1.0000  -0.0000  -0.0000  -0.0000  -0.0000
    -0.0000

          k = 0.2857 0.2857 0.3571 (  3772 PWs)   bands (ev):

   -53.3051 -27.1686 -27.1614 -27.1611 -21.9206  -6.6554  -6.0506  -5.9548
    -4.0553  -3.9258  -3.6331   5.9044   6.4410   6.6638   6.7528   6.9857
     7.1895   9.6585   9.7531  10.0640  13.4205  13.5731  13.5994  16.5580
    17.0564

     occupation numbers 
     1.0000   1.0000   1.0000   1.0000   1.0000   1.0000   1.0000   1.0000
     1.0000   1.0000   1.0000   1.0000   1.0000   1.0000   1.0000   1.0000
     1.0000   1.0000   1.0000   1.0000  -0.0000  -0.0000  -0.0000  -0.0000
    -0.0000

          k = 0.2857 0.2857 0.4286 (  3781 PWs)   bands (ev):

   -53.3050 -27.1733 -27.1611 -27.1608 -21.9172  -6.5908  -6.0674  -5.9037
    -4.1210  -3.8636  -3.7013   5.7741   6.3539   6.5715   6.6779   6.8812
     7.2414   9.6654   9.8160  10.0981  13.4509  13.7202  13.7489  16.5444
    17.3613

     occupation numbers 
     1.0000   1.0000   1.0000   1.0000   1.0000   1.0000   1.0000   1.0000
     1.0000   1.0000   1.0000   1.0000   1.0000   1.0000   1.0000   1.0000
     1.0000   1.0000   1.0000   1.0000  -0.0000  -0.0000  -0.0000  -0.0000
    -0.0000

          k = 0.2857 0.2857-0.5000 (  3788 PWs)   bands (ev):

   -53.3049 -27.1750 -27.1610 -27.1608 -21.9160  -6.5685  -6.0725  -5.8846
    -4.1454  -3.8089  -3.7578   5.7106   6.3543   6.4959   6.6858   6.8430
     7.2607   9.6675   9.8354  10.1068  13.4610  13.7753  13.8060  16.5389
    17.4645

     occupation numbers 
     1.0000   1.0000   1.0000   1.0000   1.0000   1.0000   1.0000   1.0000
     1.0000   1.0000   1.0000   1.0000   1.0000   1.0000   1.0000   1.0000
     1.0000   1.0000   1.0000   1.0000  -0.0000  -0.0000  -0.0000  -0.0000
    -0.0000

          k = 0.2857 0.3571 0.3571 (  3774 PWs)   bands (ev):

   -53.3049 -27.1682 -27.1680 -27.1609 -21.9159  -6.5280  -6.0331  -5.9342
    -4.0883  -3.9735  -3.7029   5.8403   6.3301   6.4835   6.6604   6.9769
     6.9929   9.7702   9.8467  10.1778  13.6036  13.6409  13.7411  16.7783
    17.3256

     occupation numbers 
     1.0000   1.0000   1.0000   1.0000   1.0000   1.0000   1.0000   1.0000
     1.0000   1.0000   1.0000   1.0000   1.0000   1.0000   1.0000   1.0000
     1.0000   1.0000   1.0000   1.0000  -0.0000  -0.0000  -0.0000  -0.0000
    -0.0000

          k = 0.2857 0.3571 0.4286 (  3780 PWs)   bands (ev):

   -53.3048 -27.1729 -27.1678 -27.1606 -21.9126  -6.4295  -6.0462  -5.9020
    -4.1417  -3.9442  -3.7833   5.7198   6.2428   6.3751   6.6398   6.8621
     7.0307   9.8140   9.9088  10.2557  13.6499  13.7724  13.8640  16.8084
    17.6041

     occupation numbers 
     1.0000   1.0000   1.0000   1.0000   1.0000   1.0000   1.0000   1.0000
     1.0000   1.0000   1.0000   1.0000   1.0000   1.0000   1.0000   1.0000
     1.0000   1.0000   1.0000   1.0000  -0.0000  -0.0000  -0.0000  -0.0000
    -0.0000

          k = 0.2857 0.3571-0.5000 (  3780 PWs)   bands (ev):

   -53.3048 -27.1746 -27.1677 -27.1605 -21.9114  -6.3909  -6.0554  -5.8886
    -4.1651  -3.8995  -3.8420   5.6565   6.2410   6.3222   6.6430   6.8171
     7.0494   9.8264   9.9297  10.2816  13.6609  13.8272  13.9119  16.8103
    17.7054

     occupation numbers 
     1.0000   1.0000   1.0000   1.0000   1.0000   1.0000   1.0000   1.0000
     1.0000   1.0000   1.0000   1.0000   1.0000   1.0000   1.0000   1.0000
     1.0000   1.0000   1.0000   1.0000  -0.0000  -0.0000  -0.0000  -0.0000
    -0.0000

          k = 0.2857 0.4286 0.4286 (  3764 PWs)   bands (ev):

   -53.3047 -27.1726 -27.1725 -27.1603 -21.9093  -6.2849  -6.0399  -5.9252
    -4.1448  -3.9777  -3.8700   5.6193   6.1034   6.2979   6.6593   6.8831
     6.9091   9.9048   9.9447  10.3761  13.7933  13.8062  13.9685  16.8772
    17.8656

     occupation numbers 
     1.0000   1.0000   1.0000   1.0000   1.0000   1.0000   1.0000   1.0000
     1.0000   1.0000   1.0000   1.0000   1.0000   1.0000   1.0000   1.0000
     1.0000   1.0000   1.0000   1.0000  -0.0000  -0.0000  -0.0000  -0.0000
    -0.0000

          k = 0.2857 0.4286-0.5000 (  3772 PWs)   bands (ev):

   -53.3047 -27.1742 -27.1724 -27.1602 -21.9082  -6.2144  -6.0455  -5.9449
    -4.1463  -3.9588  -3.9306   5.5635   6.0679   6.2720   6.6783   6.8401
     6.9131   9.9313   9.9592  10.4171  13.8096  13.8553  14.0096  16.8868
    17.9693

     occupation numbers 
     1.0000   1.0000   1.0000   1.0000   1.0000   1.0000   1.0000   1.0000
     1.0000   1.0000   1.0000   1.0000   1.0000   1.0000   1.0000   1.0000
     1.0000   1.0000   1.0000   1.0000  -0.0000  -0.0000  -0.0000  -0.0000
    -0.0000

          k = 0.2857-0.5000-0.5000 (  3772 PWs)   bands (ev):

   -53.3047 -27.1741 -27.1741 -27.1602 -21.9070  -6.0744  -6.0424  -6.0424
    -4.1223  -3.9790  -3.9790   5.5123   6.0226   6.2513   6.7071   6.8532
     6.8532   9.9676   9.9676  10.4636  13.8652  13.8652  14.0483  16.8980
    18.0812

     occupation numbers 
     1.0000   1.0000   1.0000   1.0000   1.0000   1.0000   1.0000   1.0000
     1.0000   1.0000   1.0000   1.0000   1.0000   1.0000   1.0000   1.0000
     1.0000   1.0000   1.0000   1.0000  -0.0000  -0.0000  -0.0000  -0.0000
    -0.0000

          k = 0.3571 0.3571 0.3571 (  3767 PWs)   bands (ev):

   -53.3048 -27.1679 -27.1676 -27.1676 -21.9112  -6.3915  -5.9456  -5.9456
    -4.0949  -4.0949  -3.7953   5.7839   6.3379   6.3379   6.5476   6.8360
     6.8360   9.9799   9.9799  10.2475  13.7581  13.7946  13.7946  17.3037
    17.3037

     occupation numbers 
     1.0000   1.0000   1.0000   1.0000   1.0000   1.0000   1.0000   1.0000
     1.0000   1.0000   1.0000   1.0000   1.0000   1.0000   1.0000   1.0000
     1.0000   1.0000   1.0000   1.0000  -0.0000  -0.0000  -0.0000  -0.0000
    -0.0000

          k = 0.3571 0.3571 0.4286 (  3768 PWs)   bands (ev):

   -53.3047 -27.1725 -27.1675 -27.1674 -21.9079  -6.2771  -5.9748  -5.8781
    -4.1857  -4.0618  -3.8921   5.6643   6.2217   6.3441   6.4715   6.7488
     6.8481  10.0352  10.1100  10.3137  13.8119  13.8973  13.9174  17.2821
    17.6429

     occupation numbers 
     1.0000   1.0000   1.0000   1.0000   1.0000   1.0000   1.0000   1.0000
     1.0000   1.0000   1.0000   1.0000   1.0000   1.0000   1.0000   1.0000
     1.0000   1.0000   1.0000   1.0000  -0.0000  -0.0000  -0.0000  -0.0000
    -0.0000

          k = 0.3571 0.3571-0.5000 (  3790 PWs)   bands (ev):

   -53.3047 -27.1741 -27.1674 -27.1673 -21.9067  -6.2262  -5.9958  -5.8525
    -4.2199  -4.0176  -3.9581   5.6004   6.2049   6.3464   6.4318   6.7191
     6.8651  10.0496  10.1532  10.3379  13.8241  13.9436  13.9649  17.2722
    17.7546

     occupation numbers 
     1.0000   1.0000   1.0000   1.0000   1.0000   1.0000   1.0000   1.0000
     1.0000   1.0000   1.0000   1.0000   1.0000   1.0000   1.0000   1.0000
     1.0000   1.0000   1.0000   1.0000  -0.0000  -0.0000  -0.0000  -0.0000
    -0.0000

          k = 0.3571 0.4286 0.4286 (  3778 PWs)   bands (ev):

   -53.3046 -27.1722 -27.1721 -27.1672 -21.9047  -6.1405  -5.9394  -5.8728
    -4.2100  -4.1210  -3.9981   5.5614   6.1077   6.3019   6.4694   6.7417
     6.7566  10.1682  10.1962  10.3984  13.9325  13.9424  14.0147  17.4188
    17.8355

     occupation numbers 
     1.0000   1.0000   1.0000   1.0000   1.0000   1.0000   1.0000   1.0000
     1.0000   1.0000   1.0000   1.0000   1.0000   1.0000   1.0000   1.0000
     1.0000   1.0000   1.0000   1.0000  -0.0000  -0.0000  -0.0000  -0.0000
    -0.0000

          k = 0.3571 0.4286-0.5000 (  3776 PWs)   bands (ev):

   -53.3046 -27.1739 -27.1721 -27.1671 -21.9035  -6.0687  -5.9528  -5.8664
    -4.2283  -4.1004  -4.0685   5.5056   6.0708   6.3040   6.4543   6.7163
     6.7653  10.1972  10.2330  10.4367  13.9493  13.9851  14.0560  17.4223
    17.9402

     occupation numbers 
     1.0000   1.0000   1.0000   1.0000   1.0000   1.0000   1.0000   1.0000
     1.0000   1.0000   1.0000   1.0000   1.0000   1.0000   1.0000   1.0000
     1.0000   1.0000   1.0000   1.0000  -0.0000  -0.0000  -0.0000  -0.0000
    -0.0000

          k = 0.3571-0.5000-0.5000 (  3776 PWs)   bands (ev):

   -53.3045 -27.1737 -27.1737 -27.1670 -21.9024  -5.9461  -5.9372  -5.9372
    -4.2093  -4.1301  -4.1301   5.4545   6.0263   6.3047   6.4478   6.7317
     6.7317  10.2483  10.2483  10.4822  13.9970  13.9970  14.0948  17.4271
    18.1133

     occupation numbers 
     1.0000   1.0000   1.0000   1.0000   1.0000   1.0000   1.0000   1.0000
     1.0000   1.0000   1.0000   1.0000   1.0000   1.0000   1.0000   1.0000
     1.0000   1.0000   1.0000   1.0000  -0.0000  -0.0000  -0.0000  -0.0000
    -0.0000

          k = 0.4286 0.4286 0.4286 (  3795 PWs)   bands (ev):

   -53.3045 -27.1719 -27.1719 -27.1719 -21.9015  -6.0124  -5.8602  -5.8602
    -4.2296  -4.2296  -4.1126   5.4655   6.1109   6.1109   6.5604   6.6787
     6.6787  10.3408  10.3408  10.4315  14.0386  14.0501  14.0501  17.7774
    17.7774

     occupation numbers 
     1.0000   1.0000   1.0000   1.0000   1.0000   1.0000   1.0000   1.0000
     1.0000   1.0000   1.0000   1.0000   1.0000   1.0000   1.0000   1.0000
     1.0000   1.0000   1.0000   1.0000  -0.0000  -0.0000  -0.0000  -0.0000
    -0.0000

          k = 0.4286 0.4286-0.5000 (  3792 PWs)   bands (ev):

   -53.3045 -27.1736 -27.1718 -27.1718 -21.9003  -5.9403  -5.8811  -5.8293
    -4.2709  -4.2057  -4.1843   5.4151   6.0604   6.1122   6.5684   6.6526
     6.6840  10.3728  10.4004  10.4614  14.0582  14.0845  14.0919  17.7398
    17.8674

     occupation numbers 
     1.0000   1.0000   1.0000   1.0000   1.0000   1.0000   1.0000   1.0000
     1.0000   1.0000   1.0000   1.0000   1.0000   1.0000   1.0000   1.0000
     1.0000   1.0000   1.0000   1.0000  -0.0000  -0.0000  -0.0000  -0.0000
    -0.0000

          k = 0.4286-0.5000-0.5000 (  3796 PWs)   bands (ev):

   -53.3044 -27.1735 -27.1735 -27.1717 -21.8992  -5.8543  -5.8536  -5.8536
    -4.2682  -4.2451  -4.2451   5.3674   6.0285   6.0896   6.5832   6.6571
     6.6571  10.4344  10.4344  10.4949  14.1002  14.1002  14.1279  17.7361
    17.9105

     occupation numbers 
     1.0000   1.0000   1.0000   1.0000   1.0000   1.0000   1.0000   1.0000
     1.0000   1.0000   1.0000   1.0000   1.0000   1.0000   1.0000   1.0000
     1.0000   1.0000   1.0000   1.0000  -0.0000  -0.0000  -0.0000  -0.0000
    -0.0000

          k =-0.5000-0.5000-0.5000 (  3840 PWs)   bands (ev):

   -53.3044 -27.1734 -27.1734 -27.1734 -21.8980  -5.8212  -5.8212  -5.8212
    -4.2890  -4.2890  -4.2890   5.3218   6.0290   6.0290   6.6315   6.6315
     6.6315  10.4986  10.4986  10.4986  14.1397  14.1397  14.1397  17.8022
    17.8022

     occupation numbers 
     1.0000   1.0000   1.0000   1.0000   1.0000   1.0000   1.0000   1.0000
     1.0000   1.0000   1.0000   1.0000   1.0000   1.0000   1.0000   1.0000
     1.0000   1.0000   1.0000   1.0000  -0.0000  -0.0000  -0.0000  -0.0000
    -0.0000

     the Fermi energy is    12.5924 ev

!    total energy              =    -300.92338616 Ry
     estimated scf accuracy    <          3.0E-11 Ry
     smearing contrib. (-TS)   =       0.00000388 Ry
     internal energy E=F+TS    =    -300.92339004 Ry

     The total energy is F=E-TS. E is the sum of the following terms:
     one-electron contribution =     -95.82503244 Ry
     hartree contribution      =      70.38494082 Ry
     xc contribution           =     -46.97895954 Ry
     ewald contribution        =    -228.50433887 Ry

     convergence has been achieved in  15 iterations

     Writing all to output data dir ./out/svo.save/ :
     XML data file, charge density, pseudopotentials, collected wavefunctions

     init_run     :      0.43s CPU      0.50s WALL (       1 calls)
     electrons    :     17.00s CPU     18.93s WALL (       1 calls)

     Called by init_run:
     wfcinit      :      0.32s CPU      0.38s WALL (       1 calls)
     wfcinit:wfcr :      0.25s CPU      0.30s WALL (      30 calls)
     potinit      :      0.03s CPU      0.03s WALL (       1 calls)
     hinit0       :      0.05s CPU      0.05s WALL (       1 calls)

     Called by electrons:
     c_bands      :     14.99s CPU     16.75s WALL (      15 calls)
     sum_band     :      1.83s CPU      1.93s WALL (      15 calls)
     v_of_rho     :      0.15s CPU      0.17s WALL (      16 calls)
     v_h          :      0.01s CPU      0.01s WALL (      16 calls)
     v_xc         :      0.14s CPU      0.16s WALL (      16 calls)
     mix_rho      :      0.02s CPU      0.02s WALL (      15 calls)

     Called by c_bands:
     init_us_2    :      0.43s CPU      0.47s WALL (     930 calls)
     cegterg      :     13.99s CPU     14.41s WALL (     450 calls)

     Called by sum_band:
     sum_band:wei :      0.01s CPU      0.01s WALL (      15 calls)
     sum_band:loo :      1.78s CPU      1.86s WALL (      15 calls)
     sum_band:buf :      0.02s CPU      0.02s WALL (     450 calls)
     sum_band:ini :      0.19s CPU      0.20s WALL (     450 calls)

     Called by *egterg:
     cdiaghg      :      0.86s CPU      0.88s WALL (    2067 calls)
     cegterg:over :      0.93s CPU      0.95s WALL (    1617 calls)
     cegterg:upda :      0.43s CPU      0.44s WALL (    1617 calls)
     cegterg:last :      0.78s CPU      0.79s WALL (    1148 calls)
     h_psi        :     10.86s CPU     11.26s WALL (    2097 calls)
     g_psi        :      0.07s CPU      0.07s WALL (    1617 calls)

     Called by h_psi:
     h_psi:calbec :      0.78s CPU      0.80s WALL (    2097 calls)
     vloc_psi     :      9.24s CPU      9.60s WALL (    2097 calls)
     add_vuspsi   :      0.75s CPU      0.77s WALL (    2097 calls)

     General routines
     calbec       :      0.77s CPU      0.79s WALL (    2097 calls)
     fft          :      0.04s CPU      0.05s WALL (     159 calls)
     ffts         :      0.00s CPU      0.00s WALL (      15 calls)
     fftw         :      9.56s CPU      9.93s WALL (   78266 calls)

     Parallel routines

     PWSCF        :     17.50s CPU     19.87s WALL


   This run was terminated on:  16:16:39  17May2026            

=------------------------------------------------------------------------------=
   JOB DONE.
=------------------------------------------------------------------------------=
